0.9648826304	differential equations
0.9620596438	simulated annealing
0.9601448101	dynamical systems
0.9600243557	neural networks
0.9594899692	maximum likelihood
0.9582986007	public health
0.9580894091	particle filter
0.9555189122	gradient descent
0.9543993798	clinical trial
0.9527968865	augmented lagrangian
0.9527948727	dimensionality reduction
0.9519622087	importance sampling
0.9514721015	differential equation
0.9510965943	confidence interval
0.9503120475	hypothesis testing
0.9500549962	uncertainty quantification
0.9479459225	gaussian process
0.9471783023	normalizing constant
0.9462008588	gibbs sampling
0.9460364947	machine learning
0.9458862082	signal processing
0.9454862345	exponential family
0.9452236192	maximum likelihood estimation
0.9451659033	neural network
0.9448858202	logistic regression
0.9444588936	dimension reduction
0.9442886073	coordinate descent
0.9438117218	deep learning
0.9435257704	brownian motion
0.9433040856	polynomial chaos expansions
0.9428864290	variable selection
0.9414798641	reversible jump
0.9414746599	automatic differentiation
0.9414143090	programming languages
0.9407455762	linear regression
0.9401005719	markov random field
0.9398391782	gene expression
0.9395359349	kalman filter
0.9392929141	markov chain monte carlo
0.9390857176	principal component analysis
0.9378630760	central limit theorem
0.9377113408	stochastic gradient descent
0.9367555757	belief propagation
0.9367023032	positive definite
0.9353907871	gibbs sampler
0.9348926120	clinical trials
0.9346699878	random walk
0.9346689357	particle filters
0.9343706591	history matching
0.9341800240	partially observed
0.9339478699	lower bound
0.9333239211	rare event
0.9331896598	infectious disease
0.9317465822	normalizing constants
0.9317387745	population genetics
0.9315609012	unit sphere
0.9303838304	gaussian processes
0.9297477109	social networks
0.9296096065	confidence intervals
0.9287490547	state space
0.9282340389	hidden markov models
0.9280836036	compressed sensing
0.9277668262	bayes factors
0.9275251307	marginal likelihood
0.9272958329	markov chains
0.9265871347	latent dirichlet allocation
0.9259292957	semidefinite programming
0.9257085651	false discovery rate
0.9256492090	total variation
0.9243289563	partial differential equation
0.9241451140	breast cancer
0.9240158377	support vector machines
0.9239077767	sensitivity analysis
0.9235592444	graphics processing units
0.9234806009	proportional hazards
0.9233788327	social network
0.9230016849	elastic net
0.9226834669	anomaly detection
0.9222384142	control variates
0.9222122601	competing risks
0.9219803912	markov chain
0.9218087428	latent variable
0.9216494511	model selection
0.9208827331	white noise
0.9203020427	density estimation
0.9200170593	composite likelihood
0.9199832294	bayes factor
0.9199456449	probability distributions
0.9198898816	shortest path
0.9197930781	experimental designs
0.9193105062	quadratic programming
0.9193053785	data assimilation
0.9192662137	monte carlo
0.9188003547	dirichlet process mixture
0.9183578911	moving average
0.9180245169	riemannian manifold
0.9176473753	delayed acceptance
0.9172960527	option pricing
0.9162683773	contingency tables
0.9162178956	likelihood ratio
0.9155699219	compressive sensing
0.9152539744	variational bayes
0.9152221947	power law
0.9152140051	square root
0.9149455147	message passing
0.9148369929	polynomial chaos
0.9148112095	expectation propagation
0.9145618136	particle filtering
0.9139466837	marginal likelihoods
0.9127483409	multidimensional scaling
0.9126028523	mixture models
0.9125740768	approximate bayesian computation
0.9123929920	polynomial chaos expansion
0.9122999960	computationally intensive
0.9122254379	generalized linear models
0.9120152394	optimal transport
0.9120106122	stochastic gradient
0.9119668957	magnetic resonance imaging
0.9115401387	covariance matrices
0.9113849398	convex optimization
0.9107092444	factorial designs
0.9105084030	closed form
0.9103320521	open source
0.9101784158	wasserstein distance
0.9100319232	nuclear norm
0.9097978392	latent variables
0.9096714899	free energy
0.9092183596	decision making
0.9090425295	deep neural networks
0.9088823310	empirical bayes
0.9088754702	coordinate ascent
0.9087237646	statistical inference
0.9086661070	random effects
0.9084576604	processing units
0.9073293950	convergence rate
0.9071935510	inverse problems
0.9070343112	random variables
0.9070191148	linear algebra
0.9068692210	ordinary differential equations
0.9066151568	variance reduction
0.9065527033	gibbs samplers
0.9064655821	finite element
0.9064160828	mutual information
0.9063578167	markov chain monte
0.9059045300	random variable
0.9057493940	remote sensing
0.9053688820	parallel tempering
0.9052975002	rare events
0.9050512090	sequential monte carlo
0.9048457807	record linkage
0.9048238191	embarrassingly parallel
0.9047945863	hard thresholding
0.9047758448	feature extraction
0.9046292462	hilbert space
0.9045574000	latin hypercube
0.9045484269	active set
0.9045156608	vine copula
0.9043907060	sample size
0.9039979382	experimental design
0.9039940730	probabilistic programming
0.9035098141	label switching
0.9034571468	dynamic programming
0.9031080893	collapsed gibbs
0.9029256300	structural breaks
0.9028476814	roc curve
0.9024363862	nearest neighbor
0.9021732751	parameter estimation
0.9020537841	generative adversarial
0.9020430359	terminal event
0.9020167525	kernel density estimation
0.9019901430	condition number
0.9017438611	ergodic averages
0.9016825234	unit root
0.9016547869	short note
0.9015529627	covariance matrix
0.9012273397	random forest
0.9011204233	bayesian inference
0.9009614027	propensity score
0.9009579189	markov random fields
0.9005814600	phase transition
0.9002874629	stochastic volatility
0.8994924895	image segmentation
0.8990785516	upper bound
0.8989518165	data science
0.8987740287	image denoising
0.8981523687	higher order
0.8979054811	floating point
0.8978397845	upper bounds
0.8978209478	social media
0.8977668270	hamiltonian monte carlo
0.8976034656	uncertainty propagation
0.8973491996	bernoulli factory
0.8972931142	integrated nested laplace
0.8971718582	factor analyzers
0.8971486957	optimal design
0.8969430898	object oriented
0.8966899277	monte carlo methods
0.8965855626	partial differential equations
0.8964483979	large scale
0.8964314929	fused lasso
0.8963584051	maximum entropy
0.8958527006	inverse problem
0.8957780960	optimization problem
0.8956280832	measurement error
0.8944270623	ising model
0.8943380291	ad hoc
0.8942472263	expectation maximization
0.8941417304	iteratively reweighted
0.8939117115	piecewise deterministic markov processes
0.8937908786	fourier transform
0.8937130456	riemann manifold
0.8936729346	fast fourier transform
0.8935587954	truncated normal
0.8933712077	screening rules
0.8929576708	expected information gain
0.8929292385	graphical models
0.8929088400	inequality constraints
0.8927021982	numerical integration
0.8926295984	fisher scoring
0.8925609494	perfect simulation
0.8925023621	steady state
0.8922322827	precision matrices
0.8919113049	random projections
0.8918888388	ridge regression
0.8917838417	changepoint detection
0.8916649442	probability density function
0.8911803691	dirichlet process
0.8911684535	stochastic differential equations
0.8909894228	outlier detection
0.8904600409	contingency table
0.8904251182	latent class
0.8903656771	rejection sampling
0.8899693860	transport map
0.8898529505	posterior distributions
0.8897053074	geometric ergodicity
0.8895307427	semismooth newton
0.8891807205	nested sampling
0.8888323857	laplace approximation
0.8886634291	optimal experimental design
0.8886608910	determinantal point processes
0.8885781651	big data
0.8883514846	monte carlo simulation
0.8880603854	bouncy particle sampler
0.8880090765	heavy tails
0.8875638863	ground truth
0.8875349568	summary statistics
0.8873967956	geometrically ergodic
0.8873263110	soft thresholding
0.8872524344	loss function
0.8871645826	summary statistic
0.8870721766	unadjusted langevin
0.8870225541	ensemble kalman
0.8869476149	negative binomial
0.8867680889	random forests
0.8867658346	simulated tempering
0.8865774504	state spaces
0.8865475970	test statistic
0.8865148442	stopping rule
0.8864836971	missing data
0.8863515858	treatment effects
0.8861756149	bayesian inverse problems
0.8860830340	exploratory data analysis
0.8860467544	gaussian random field
0.8860006612	projection pursuit
0.8859358113	exponential families
0.8858271944	feature selection
0.8854494310	finite difference
0.8849653458	water quality
0.8843958541	genome wide
0.8843926948	factor analysis
0.8841443837	random numbers
0.8838161567	variational approximation
0.8828892326	target tracking
0.8827701881	birth death
0.8827513889	bayesian model averaging
0.8824618301	low rank
0.8823103222	normal distribution
0.8821346052	computationally efficient
0.8820315007	cross validation
0.8818432677	mixture model
0.8818294961	chaos expansions
0.8811465535	missing values
0.8810124031	effective sample size
0.8809595145	programming language
0.8809103320	treatment effect
0.8806963043	von mises
0.8802640485	pseudo marginal
0.8798616363	auxiliary variable
0.8797241820	pareto distribution
0.8797236408	doubly intractable
0.8795860561	global sensitivity analysis
0.8795056284	hidden markov
0.8794642020	systems biology
0.8793830960	hamiltonian dynamics
0.8792944397	magnetic resonance
0.8792869703	massively parallel
0.8790111192	log concave
0.8786090433	autoregressive moving
0.8782229862	absolutely continuous
0.8781759816	credible intervals
0.8781003559	parameter space
0.8776100023	subset simulation
0.8775204393	image processing
0.8774758718	mixed integer
0.8772080082	change point
0.8771147156	computational complexity
0.8771118925	point processes
0.8770308236	compares favorably
0.8770128738	step size
0.8767204472	starting values
0.8766308709	principal components
0.8765725635	generalized hyperbolic
0.8764389983	graphical model
0.8764379077	latin hypercube sampling
0.8764329675	variational inference
0.8763658625	survival analysis
0.8763362720	langevin diffusion
0.8760098622	likelihood function
0.8758417635	strongly convex
0.8757887299	stochastic differential equation
0.8755189256	random walks
0.8754522286	accept reject
0.8749875273	slice sampling
0.8749004620	computationally expensive
0.8748371527	stochastic approximation
0.8747866072	kalman filtering
0.8747747899	optimization problems
0.8744378473	gaussian graphical models
0.8742741489	bayesian nonparametric
0.8742384551	semi supervised
0.8739573107	kl divergence
0.8738208968	python package
0.8732028044	transition kernel
0.8731520756	markov jump processes
0.8731312867	preferential attachment
0.8731048511	strong convexity
0.8730388320	conditional independence
0.8730119477	long memory
0.8730005048	infinite dimensional
0.8726904293	renewable energy
0.8723969616	state space models
0.8718157213	black box
0.8718136817	probabilistic programs
0.8714208380	skew normal
0.8712178459	stochastic optimization
0.8710152292	fixed point
0.8709886743	regression models
0.8708659237	quantile regression
0.8705969931	empirical likelihood
0.8705139866	probabilistic programming language
0.8704884823	exchange algorithm
0.8701450095	expectation maximisation
0.8696417179	lower bounds
0.8694009054	quasi newton
0.8693573610	rare event probabilities
0.8692138215	penalized regression
0.8691657922	probability measure
0.8689055894	group lasso
0.8688892082	particle gibbs
0.8687702475	change point detection
0.8687212339	kullback leibler divergence
0.8684235836	minorization maximization
0.8683763887	diffusion bridges
0.8679427614	precision matrix
0.8678708682	multilevel monte carlo
0.8678367428	simulation study
0.8676735347	gamma distribution
0.8676654961	proximal gradient
0.8676016622	acceptance probability
0.8673977353	posterior distribution
0.8673915062	convolutional neural
0.8673670489	data mining
0.8671465295	log gaussian cox
0.8670629481	active learning
0.8662668310	bayesian computation
0.8659810723	wind speed
0.8656388754	low dimensional
0.8656198021	matrix variate
0.8648281727	complex systems
0.8647672147	heavy tailed
0.8646741068	spatially varying
0.8645508279	data set
0.8645126566	real valued
0.8643246480	red sequence
0.8642629402	transport maps
0.8642004637	discriminant analysis
0.8634266827	model choice
0.8634053331	majorization minimization
0.8633341586	l1 norm
0.8629702175	stochastic blockmodel
0.8625282945	regularity conditions
0.8618684874	log likelihood
0.8618414017	constrained optimization
0.8617681226	parallel computing
0.8617615774	cumulative distribution function
0.8617234489	exponential random graph models
0.8615721800	graphical lasso
0.8614237099	posterior inference
0.8613965279	bias correction
0.8613406314	forward backward
0.8612911931	standard deviation
0.8607383371	gradient langevin dynamics
0.8605266244	run length
0.8603106585	subset selection
0.8602249395	high fidelity
0.8601966771	sobol indices
0.8601539557	sensitivity indices
0.8601395488	optimal scaling
0.8600630102	synthetic data
0.8598806773	control charts
0.8597541654	causal inference
0.8597141466	data analysis
0.8591908102	fisher information matrix
0.8591104574	source code
0.8587949886	general purpose
0.8586691239	sparsity inducing
0.8584988530	failure rate
0.8579944818	data augmentation
0.8578870543	flow cytometry
0.8578211542	np hard
0.8575930585	latent variable models
0.8574800691	sufficient statistics
0.8574467562	particle markov chain monte carlo
0.8573227748	nearest neighbour
0.8569455666	multi modal
0.8569145378	gaussian mixture
0.8569096000	normalising constant
0.8567650308	long range
0.8566442470	bias corrected
0.8564725585	integer valued
0.8564114102	primal dual
0.8564102745	open source software
0.8562990653	statistical physics
0.8561658712	worst case
0.8560252380	sparse polynomial chaos expansions
0.8557766060	exponential family random graph
0.8556216903	chi square
0.8555944601	shrinkage priors
0.8553656567	low fidelity
0.8552259242	cholesky factor
0.8551897362	hilbert spaces
0.8550831042	independent component analysis
0.8550563658	diffusion processes
0.8549824325	gaussian process regression
0.8549557155	multi core
0.8546509887	feature allocation
0.8543440976	fuel economy
0.8543234778	global optimization
0.8543227945	jump markov
0.8539521463	acceptance rejection
0.8536862725	sequential monte
0.8526541535	matrix completion
0.8525408258	directed acyclic graphs
0.8524859853	bandwidth selection
0.8520380060	theoretical guarantees
0.8519541778	hierarchical models
0.8519062265	discretely observed
0.8518025653	stochastic block model
0.8517107134	stochastic process
0.8516168851	piecewise deterministic markov process
0.8515340220	null hypothesis
0.8512523511	random fields
0.8510234713	probability mass
0.8509915905	gaussian noise
0.8509818039	data sets
0.8509695723	smoothing spline
0.8509638151	population growth
0.8507282837	information theoretic
0.8506284952	software package
0.8504475204	generalization error
0.8502961562	probability distribution
0.8502239239	gibbs random fields
0.8500380576	shapley values
0.8498289537	probability density
0.8497250534	stochastic volatility model
0.8496552359	bayesian variable selection
0.8495278016	adaptive importance sampling
0.8494136867	high dimensional
0.8490875309	supervised learning
0.8488889430	multi level
0.8488034017	expected improvement
0.8485180065	gold standard
0.8484389956	acceptance rates
0.8484108358	gaussian markov random fields
0.8481841223	mini batch
0.8480029113	post processing
0.8477207413	multi fidelity
0.8470354881	spatio temporal
0.8469751474	generative models
0.8468003508	euclidean space
0.8466181248	log determinant
0.8461075435	genome wide association
0.8460027548	expectation conditional maximization
0.8456976527	affine invariant
0.8455891204	matrix factorization
0.8455663877	sparse pca
0.8454911216	markov jump process
0.8454056358	real life
0.8449388228	user friendly
0.8447331834	likelihood free
0.8446692504	random number generators
0.8445766572	component wise
0.8444986140	likelihood free inference
0.8444070497	characteristic function
0.8443632803	change points
0.8439485533	multi resolution
0.8439037620	statistical analysis
0.8434407017	case studies
0.8432771760	simulation studies
0.8428954873	generalized linear mixed models
0.8427984957	linear mixed models
0.8426207830	update formulae
0.8425840696	order statistics
0.8423359577	quasi monte carlo
0.8414104265	proposal distributions
0.8414080953	interacting particle
0.8412667134	sequential importance sampling
0.8411993178	high performance computing
0.8409951601	low discrepancy
0.8407250706	spectral gap
0.8406453109	computationally demanding
0.8405800316	mcmc methods
0.8403601846	ensemble kalman filter
0.8403203600	data driven
0.8400944303	confidence bounds
0.8397205434	thompson sampling
0.8396021588	multi dimensional
0.8390335814	accumulation point
0.8389680370	standard errors
0.8389654456	bayesian statistics
0.8388403947	hessian matrix
0.8388161059	max stable
0.8387617048	covariance function
0.8386451408	indirect inference
0.8385102362	hypothesis tests
0.8384973038	objective function
0.8384894677	tukey depth
0.8383065727	hilbert schmidt
0.8382060586	ultrahigh dimensional
0.8379834266	measurement errors
0.8379183985	convergence rates
0.8378694738	annual loss
0.8376245464	mixed effects
0.8373506454	high dimensions
0.8373226685	limit theorems
0.8368987391	approximate bayesian
0.8368568252	computational cost
0.8363468965	reduced rank
0.8362834332	gauss hermite
0.8362668891	correlation coefficient
0.8362006864	cholesky decomposition
0.8360857348	transition probabilities
0.8359834280	generalised linear
0.8355272916	stability selection
0.8354968886	short term
0.8354781303	principal component
0.8351413321	hidden markov model
0.8351198227	reliability analysis
0.8349846353	` `
0.8349155031	potts model
0.8348058036	finite sample
0.8345952557	high throughput
0.8345500873	piecewise linear
0.8343685010	point process
0.8343638290	large data sets
0.8341883882	intractable normalizing
0.8338443595	high resolution
0.8337135719	quadratic discriminant
0.8335192631	speed ups
0.8331391574	spectral density
0.8331090826	interior point
0.8330633471	parameter inference
0.8326027393	reproducing kernel hilbert
0.8320253065	vector autoregressive
0.8320176477	commonly encountered
0.8320148417	gradient boosting
0.8314949655	chain monte carlo
0.8314274629	batch means
0.8313094607	likelihood estimation
0.8310390021	model averaging
0.8309370537	pseudo likelihood
0.8309041105	software packages
0.8309040369	computational budget
0.8306192668	semi parametric
0.8305454758	block coordinate descent
0.8303630178	hamiltonian monte
0.8303219547	multivariate normal
0.8302999760	step sizes
0.8300790115	random field
0.8300552519	numerical examples
0.8294778674	interval censored
0.8287791477	importance weights
0.8284549556	computing environments
0.8283706731	high accuracy
0.8282093646	united states
0.8282076745	theoretical justification
0.8281784484	excellent performance
0.8281078951	permutation tests
0.8278950768	profile likelihood
0.8278879740	permutation test
0.8277785253	semi intrusive
0.8276502245	ising models
0.8274460998	likelihood informed
0.8273891901	weibull distribution
0.8273864360	gaussian mixture models
0.8270716633	computational efficiency
0.8261164953	causal effects
0.8260490165	confidence regions
0.8258596751	stick breaking
0.8256139580	structural equation models
0.8255155124	approximate inference
0.8252959052	global envelopes
0.8252352213	numerical experiments
0.8251061028	gaussian random fields
0.8250445077	preconditioned crank nicolson
0.8249602634	convergence guarantees
0.8249337143	model based clustering
0.8246422027	simulation experiments
0.8241745086	synthetic likelihood
0.8241317770	mixed models
0.8240560755	alpha stable
0.8239923669	large datasets
0.8238505459	scales linearly
0.8236143163	response surfaces
0.8231981500	special cases
0.8231210642	item response
0.8229171129	recently introduced
0.8226943397	particle mcmc
0.8225614269	conjugate gradient
0.8225484843	numerical linear algebra
0.8224810943	acceptance rate
0.8223285855	stochastic kinetic models
0.8214418612	finite dimensional
0.8213585534	explanatory variables
0.8213315647	active subspace
0.8213241281	association studies
0.8211628192	population size
0.8211405066	sparse inverse covariance
0.8207970453	generalized additive models
0.8205844713	piecewise deterministic
0.8201374251	recently developed
0.8200242852	confidence sets
0.8198991300	armed bandit
0.8197441928	log normal
0.8197235729	multi object
0.8195509006	computationally prohibitive
0.8193460222	data streams
0.8191483629	conjugate priors
0.8191236214	target distributions
0.8190986172	sequential design
0.8189929073	statistical models
0.8187749170	block diagonal
0.8187217948	asymmetric laplace
0.8186413504	functional data
0.8184449988	user defined
0.8183686258	real world
0.8183443637	information criteria
0.8181574845	minimum energy
0.8178971664	olya gamma
0.8176473401	panel data
0.8175805480	linear models
0.8170150237	trans dimensional
0.8169842949	intractable likelihoods
0.8168097504	computational burden
0.8154779932	long standing
0.8153309313	ancestor sampling
0.8151949305	bayesian analysis
0.8145879380	latent gaussian
0.8143874349	count data
0.8143555425	failure probabilities
0.8142372459	generalized linear
0.8138302961	newly developed
0.8136231712	latent gaussian models
0.8132898191	tensor train
0.8128666513	unbiased estimators
0.8122060322	hybrid monte carlo
0.8120555968	random graphs
0.8115877463	response surface
0.8114953495	multilevel splitting
0.8113850455	bayesian model selection
0.8110615771	supervised classification
0.8108503370	main result
0.8107588871	nuisance parameters
0.8105042169	moment matching
0.8104933092	optimal designs
0.8104378677	mixed effects models
0.8102314431	stochastic volatility models
0.8102309949	target distribution
0.8097344534	fisher information
0.8091462453	information criterion
0.8090968195	beta binomial
0.8089170983	generalized linear mixed
0.8085473229	post change
0.8083377196	auxiliary variables
0.8073630493	false discovery
0.8071449204	multi armed bandit
0.8067860352	singular value decomposition
0.8066165735	illustrative examples
0.8066164357	type ii
0.8064976813	higher dimensional
0.8062191738	microarray data
0.8061848348	isotonic regression
0.8058048563	hyper parameter
0.8057288532	error bound
0.8056665905	log gaussian cox processes
0.8054305405	high performance
0.8054265834	false positive
0.8054102560	censored data
0.8054038482	conditional expectations
0.8051421810	real data sets
0.8050917082	computational savings
0.8048974485	slice sampler
0.8048070398	hyper parameters
0.8047936940	article considers
0.8046347094	posterior approximation
0.8045869361	factor graph
0.8044322758	auxiliary particle filter
0.8041753580	asymptotic normality
0.8040435821	langevin monte carlo
0.8040160518	density function
0.8039195023	local optima
0.8027592122	cross entropy
0.8026917008	generalized labeled
0.8023212242	uniformly distributed
0.8022314057	coordinate wise
0.8019288356	multiple imputation
0.8019061636	complex valued
0.8016196413	gaussian distribution
0.8016012985	independent and identically distributed
0.8009964269	multi bernoulli
0.8009807632	sample sizes
0.8006998910	bayesian experimental design
0.8006237767	main contributions
0.8005884874	numerical results
0.8005315318	theoretical results
0.8004229057	stratified sampling
0.8003722206	multiple changepoint
0.8001119750	monte carlo simulations
0.8000135200	expectation maximization algorithm
0.7999937622	signal to noise ratio
0.7998372569	point pattern
0.7994153863	nonlinear state space models
0.7992931202	computational costs
0.7987661973	asymptotic variance
0.7987181464	posterior probability
0.7984543787	multi armed
0.7983214196	probabilistic graphical models
0.7972338107	perfect sampling
0.7971353542	asymptotically exact
0.7968482988	case study
0.7965163640	feynman kac
0.7964845172	linear programming
0.7963849663	control variate
0.7961537080	stochastic processes
0.7958909271	theoretical analysis
0.7957790467	copula models
0.7955399767	rare event simulation
0.7952515851	surrogate model
0.7950452972	robbins monro
0.7947545357	simulation based
0.7947126693	predictive performance
0.7938660681	multivariate probit
0.7937467234	shiryaev roberts
0.7937234192	local minima
0.7935145299	simulated data
0.7932567947	em algorithm
0.7922133839	langevin dynamics
0.7921074893	extensive simulation studies
0.7917448633	markov process
0.7912897172	poisson processes
0.7906917000	predator prey
0.7906377170	probability densities
0.7906073659	optimality criteria
0.7903590465	computational effort
0.7900355007	mcmc algorithms
0.7898932388	basis functions
0.7898459499	proximal point
0.7896757475	discrete choice
0.7894946862	point sets
0.7893154326	statistical tests
0.7892098284	kolmogorov smirnov
0.7890866392	asymptotically normal
0.7887175366	latent position
0.7884325389	equi energy
0.7881718504	easily implemented
0.7877132563	law of large numbers
0.7876241931	markov chain monte carlo methods
0.7875731077	target densities
0.7867912137	zig zag
0.7867163223	solution path
0.7866861049	component analysis
0.7866491459	real datasets
0.7865938763	closed form expressions
0.7862723864	derivative free
0.7859050977	fixed effects
0.7851998004	empirical evidence
0.7850294001	truncated samples
0.7849889807	stable distribution
0.7847525364	algorithmic framework
0.7843003108	kernel density
0.7841673264	generalized linear model
0.7836754440	real data
0.7836283377	inverse gamma
0.7834828684	consistency and asymptotic normality
0.7833135703	categorical data
0.7827938373	tuning parameters
0.7825469493	special attention
0.7823969771	asymptotic variances
0.7823369329	closely related
0.7823032465	generalized autoregressive
0.7822742275	error term
0.7821667317	state space model
0.7821560522	sequential monte carlo samplers
0.7821325204	random sampling
0.7817068526	algebraic statistics
0.7817012809	kernel based
0.7814153775	particle flow
0.7809717525	distance covariance
0.7808708597	computationally cheap
0.7806336585	gaussian copula
0.7805865346	massive data
0.7805272245	poisson process
0.7801133948	monte carlo method
0.7799043252	quantile function
0.7796647804	wang landau algorithm
0.7795997143	loss functions
0.7792915762	additive noise
0.7788948790	exact inference
0.7788840149	dirichlet processes
0.7787977294	minimum distance
0.7786909456	exponential distribution
0.7786433647	gaussian approximation
0.7783944130	sea surface
0.7776323936	surrogate modeling
0.7775951199	alternating direction method of multipliers
0.7774575349	prior distribution
0.7772230277	parameter values
0.7770046849	domain specific
0.7769494732	finite mixture models
0.7760493599	significantly improve
0.7752230758	maximum likelihood estimator
0.7750820360	error terms
0.7742206914	analytically tractable
0.7738542690	stationary point
0.7736761364	extensive simulations
0.7736565463	tuning parameter
0.7736237555	binary data
0.7735939810	coverage probability
0.7734699079	multiple testing
0.7732300510	cran.r project.org
0.7731224705	markov processes
0.7730963119	penalized likelihood
0.7728200748	bayesian logistic regression
0.7721101056	error bounds
0.7716294559	doubly intractable distributions
0.7713943801	backward sampling
0.7713021297	sparse grid
0.7710751959	approximation error
0.7709258494	sequential monte carlo methods
0.7705918995	efficiency gains
0.7698547062	generalized additive
0.7697392928	highly correlated
0.7696892477	successfully applied
0.7696133978	gaussian mixture model
0.7692156857	stochastic approximation em
0.7689927512	rao blackwellized particle
0.7689537452	measure transport
0.7687521762	lower dimensional
0.7686385992	reversible jump mcmc
0.7684765875	multi class
0.7684012783	information theory
0.7683497379	high quality
0.7680100207	correlation matrices
0.7678441041	random graph
0.7663900748	recent years
0.7662952484	hypothesis test
0.7661405055	functional form
0.7658811716	agent based
0.7655934837	motivating application
0.7654098284	kullback leibler
0.7650353961	poisson distribution
0.7646076001	categorical variables
0.7645974553	penalized estimation
0.7645069259	extensive numerical experiments
0.7644123345	computational challenges
0.7642639158	importance density
0.7642533344	point wise
0.7640363334	desirable properties
0.7640271937	molecular dynamics
0.7637679015	model fitting
0.7636533741	mixture modeling
0.7635614568	proposed method
0.7635546193	stable distributions
0.7634982965	measurement noise
0.7632719237	newton raphson
0.7630979329	genetic algorithm
0.7618784751	convex programming
0.7617624055	superior performance
0.7614696465	long run
0.7609656871	squared error
0.7608279853	numerical methods
0.7608134482	long term
0.7606700745	generalized lasso
0.7605629043	identically distributed
0.7605027778	meta analysis
0.7602759109	poisson binomial
0.7600770174	number generators
0.7600392048	rao blackwellized
0.7596767198	computational resources
0.7594339561	linear mixed model
0.7593939084	large sample
0.7587453717	large spatial
0.7586574849	individual level
0.7582599231	parameter estimates
0.7581429601	lotka volterra
0.7579677610	leibler divergence
0.7579122738	random number
0.7576714694	bayesian filtering
0.7572447665	closed form solution
0.7570001968	quadrature rules
0.7568508032	field theory
0.7564571031	statistical computing
0.7564208171	recently proposed
0.7564191755	asymptotically optimal
0.7563492972	bridge sampling
0.7563182094	statistical software
0.7561073770	feature space
0.7558640325	structural reliability
0.7553526774	marginal densities
0.7552345537	euler maruyama
0.7550663355	statistical methods
0.7549690225	gaussian cluster weighted
0.7548810930	binary classification
0.7548304021	computationally intractable
0.7547026884	linear gaussian
0.7546803495	topic models
0.7545306892	sparse regression
0.7544696045	paper investigates
0.7542963214	data points
0.7538912806	parametric families
0.7537959085	nonparametric regression
0.7537779842	qr
0.7537278789	functional response
0.7534934399	bayesian network
0.7532048786	posterior sampling
0.7530439804	hierarchical bayesian
0.7520860425	approximate posterior
0.7519085303	wang landau
0.7517982638	ornstein uhlenbeck
0.7516001024	observed data
0.7515848806	particle marginal metropolis hastings
0.7514345537	rao blackwellization
0.7511469029	log likelihood ratio
0.7508914548	regression analysis
0.7506282758	gradient based
0.7506234988	computationally infeasible
0.7501297333	high order
0.7500941130	mri
0.7497494454	multivariate gaussian
0.7495299625	mcmc samplers
0.7494975241	high frequency
0.7494227729	functional data analysis
0.7492751068	likelihood ratio test
0.7488331004	correlation structure
0.7480669932	tidy data
0.7480651448	bayesian networks
0.7477991773	nonparametric density estimation
0.7475042809	proposed approach
0.7472508553	stochastic differential
0.7468931616	multivariate data
0.7465529789	statistical efficiency
0.7459959735	low rank tensor
0.7458874342	stochastic search
0.7455966705	numerical simulations
0.7447029473	sparse recovery
0.7442961918	distributed computing
0.7442098284	marshall olkin
0.7437070015	probit regression
0.7436998007	increasingly popular
0.7436783488	robust optimization
0.7436558197	reduced order
0.7435974310	likelihood based inference
0.7434738830	multi task
0.7431852804	spline regression
0.7430764822	significantly reduce
0.7429807382	high dimensional data
0.7422098284	dempster shafer
0.7419214104	bayesian hierarchical
0.7416907639	model output
0.7416022584	dc
0.7415326444	robust pca
0.7410698446	bayesian evidence
0.7406778529	model selection criteria
0.7404947196	information geometry
0.7400867212	mcmc sampling
0.7400837436	structure learning
0.7399620228	probabilistic numerical
0.7396773535	hiv
0.7395710981	variance components
0.7393168271	single index
0.7387371333	conjugate prior
0.7386839174	linear convergence
0.7384486549	existing methods
0.7384076955	linear model
0.7376322899	crank nicolson
0.7375701457	regularization parameter
0.7369970126	computationally tractable
0.7369544425	linear systems
0.7369488478	penalty term
0.7368926823	robust regression
0.7367724325	test statistics
0.7366133069	inverse gaussian
0.7366024451	network analysis
0.7365578332	smc sampler
0.7363605067	correlation analysis
0.7363132350	coverage probabilities
0.7362044357	posterior density
0.7361686701	ab
0.7361252884	likelihood based
0.7357744544	bayesian synthetic likelihood
0.7356278939	numerically stable
0.7356214409	experimental results
0.7356162187	software development
0.7352615864	reaction networks
0.7352516375	goodness of fit tests
0.7350059879	confidence level
0.7348669806	predictive accuracy
0.7347326404	root mean square
0.7346731396	fixed rank
0.7339617854	laplace approximations
0.7328952906	transition kernels
0.7328126973	genomic data
0.7326406600	co2
0.7325165170	parametric bootstrap
0.7322915158	computational tools
0.7320865513	sequential quasi monte carlo
0.7319925620	convergence diagnostics
0.7317726785	normal distributions
0.7317486202	sparse group lasso
0.7317151818	gaussian mixtures
0.7316546084	stiefel manifold
0.7315366440	robust estimation
0.7310812578	higher dimensions
0.7310291968	cluster weighted
0.7306812489	analytically intractable
0.7306058112	wiener
0.7302368003	input parameters
0.7299987355	regularization term
0.7299623553	regularized estimation
0.7298173252	deep neural
0.7297960211	random variates
0.7296838726	linking method
0.7293783495	computational overhead
0.7293551743	parametric family
0.7292137999	multivariate normal distribution
0.7290168102	multimodal target
0.7289784171	garch models
0.7288814413	complex models
0.7287670793	akaike
0.7281480255	kernel smoothing
0.7280939978	starting point
0.7279928118	stationary points
0.7276582097	intractable normalising
0.7273121948	main focus
0.7271383393	derivative based
0.7266415031	probability measures
0.7266020959	error rate
0.7264200070	european
0.7263461218	function evaluations
0.7263174389	haar
0.7262395460	significant improvement
0.7259755359	finite set
0.7257447195	covariance estimation
0.7256730775	variational bayesian
0.7256662741	convergence properties
0.7251478423	bayesian optimization
0.7248679553	bayesian updating
0.7241423992	approximate bayesian inference
0.7239966331	objective functions
0.7236679495	standard mcmc
0.7235933892	linear complexity
0.7235735814	epidemic model
0.7234749597	sampling algorithms
0.7231947837	observational data
0.7229394576	empirical risk
0.7228780080	markov decision
0.7228717361	finite mixture
0.7228354695	latent block
0.7223838298	dynamic systems
0.7221977124	dimension independent
0.7217429905	covariance structure
0.7215979413	static parameters
0.7214958573	iterative method
0.7213967757	significantly improves
0.7213071257	reference measure
0.7209548847	linear mixed
0.7207848010	invariant distribution
0.7207130073	proposed methodology
0.7204393121	importance function
0.7202981356	numerical approximation
0.7201732829	inverse covariance
0.7198345335	sample paths
0.7197762664	computational gains
0.7195910773	network models
0.7194854108	data subsampling
0.7194019794	discretisation error
0.7193164710	mcmc sampler
0.7190261581	posterior samples
0.7190247410	gradient based optimization
0.7189085685	sampling strategy
0.7187073822	real data examples
0.7184859799	local polynomial
0.7184447194	dynamic networks
0.7181311737	regression trees
0.7181082080	mixture distribution
0.7180336281	significantly reduces
0.7176164565	stationary distribution
0.7175277566	theoretical properties
0.7174135775	bayesian learning
0.7173982476	rna
0.7173115494	selection consistency
0.7171936940	spike and slab priors
0.7171672091	kronecker
0.7170619303	kl
0.7170584686	multilevel models
0.7166653932	mm algorithm
0.7162827534	means clustering
0.7161924225	optimal subsampling
0.7161665187	distributional assumptions
0.7161412422	stochastic epidemic
0.7159075431	longitudinal data
0.7158367483	spatial models
0.7157966023	generating random
0.7154958453	manifold optimization
0.7146817294	covariance operator
0.7143457590	bayesian hierarchical models
0.7143406686	low rank matrix
0.7139417461	stochastic models
0.7138749404	multi objective
0.7132094754	numerical stability
0.7131938651	incomplete data
0.7128045703	basketball
0.7127184958	local search
0.7121946035	pce
0.7121800109	proposed algorithm
0.7120976991	level sets
0.7120731555	survival data
0.7119404916	bayesian quadrature
0.7118618560	noisy observations
0.7118294394	mathematical model
0.7116462798	child
0.7114124548	sequential importance
0.7113629816	generally applicable
0.7112544585	complex networks
0.7110741946	integrated nested laplace approximation
0.7110293635	spectral clustering
0.7105346602	dna
0.7103461497	polar
0.7100675038	likelihood functions
0.7099635637	marginal posterior
0.7099070023	determinantal point
0.7097174481	relative error
0.7096613499	bayesian lasso
0.7094955239	crossed random
0.7093632029	theoretical findings
0.7089005923	nonparametric bayesian
0.7088755848	wireless
0.7087187951	radar
0.7084769759	importance sampler
0.7084041330	simulated and real datasets
0.7081335854	roc
0.7081164688	cluster analysis
0.7080696355	waste
0.7080696355	oil
0.7079255212	probabilistic models
0.7076705146	cross entropy method
0.7076414892	convex function
0.7075543277	garch
0.7075301988	mixing distribution
0.7073047881	common practice
0.7069578956	surrogate models
0.7069504647	infinite mixture
0.7068732341	based approach
0.7067997747	random inputs
0.7064537452	importance samplers
0.7063103249	particle methods
0.7061520814	variance reduced
0.7061517527	rejection free
0.7059529536	sections
0.7057320857	spatial datasets
0.7054751144	river
0.7054182807	boolean
0.7050131320	educational
0.7048819623	conditionally independent
0.7046790220	adaptive mcmc
0.7046633385	regression model
0.7046008273	high dimensional problems
0.7043951559	data structure
0.7042723733	bayesian inverse
0.7041107012	trust
0.7034475862	fisher's
0.7034333427	adaptive lasso
0.7033042431	radiation
0.7032882806	advertising
0.7032882806	influenza
0.7031320216	model comparison
0.7030960202	deformation
0.7030960202	islands
0.7029930821	functional regression
0.7028064437	complexity bound
0.7026039148	gaussian process models
0.7025080296	electricity
0.7025080296	farms
0.7025080296	government
0.7022727720	investment
0.7021194266	bayesian approach
0.7020741857	gumbel
0.7020401290	main effects
0.7019522779	high level
0.7019236553	jacobian
0.7018648123	smart
0.7017200400	particle marginal
0.7009956453	open problem
0.7008934068	boltzmann
0.7008550772	gini
0.7008352451	computationally costly
0.7007955524	monte carlo algorithms
0.7004981375	survival models
0.7004245695	monte carlo integration
0.7003892156	mobile
0.7001822938	experimental data
0.6996680152	implicit models
0.6996060957	data stream
0.6994805700	prediction error
0.6993428431	laplacian
0.6991184564	high dimensionality
0.6989439323	bootstrap methods
0.6986424786	error covariance
0.6986051670	fiber
0.6985937958	isolation
0.6985369381	verification
0.6983416429	estimation procedure
0.6983060669	sampling efficiency
0.6982607880	autonomous
0.6982607880	hyperspectral
0.6982607880	pan
0.6981599265	regression tree
0.6981068826	bundle
0.6975977710	video
0.6973154950	pro
0.6972979444	wishart
0.6970511001	kernel matrix
0.6968831944	degrees of freedom
0.6968616728	data types
0.6968176412	earth
0.6967327332	internet
0.6965687359	taylor
0.6963663189	gram
0.6963578200	random vectors
0.6962373785	taking into account
0.6959449507	point patterns
0.6956788340	log concave density
0.6956489237	large numbers
0.6956485607	random measures
0.6955577379	conic
0.6955546772	population monte carlo
0.6955104542	observed information
0.6951722463	elimination
0.6950736670	convex clustering
0.6950269546	optimization algorithm
0.6949159107	lasso type
0.6947195515	bayesian calibration
0.6945131545	diabetes
0.6945128750	multiple importance sampling
0.6944909631	marginal distributions
0.6944736514	sampling algorithm
0.6942169738	density estimators
0.6941498578	tt
0.6939499631	factor models
0.6935381510	cauchy
0.6935112499	calculus
0.6934670381	markov models
0.6934033599	takes into account
0.6933641569	model parameters
0.6933007024	receiver
0.6932682988	mixed model
0.6930177012	asymptotic analysis
0.6930170698	regression problems
0.6925807716	gas
0.6925081885	empirical results
0.6924190772	convex functions
0.6923071612	u turn
0.6922180621	github
0.6919301201	sample space
0.6918937381	importance sampling scheme
0.6916418105	cosmic
0.6915890961	posterior predictive
0.6912832451	uncertain parameters
0.6911525565	surrogate modelling
0.6911364773	gaussian markov random
0.6911060465	scalable algorithms
0.6909538964	abc smc
0.6908007989	prior knowledge
0.6906886835	computationally challenging
0.6906087419	iterative algorithm
0.6905955670	triangular
0.6899500831	tail probability
0.6897936350	marginal distribution
0.6897640669	estimation methods
0.6894353083	intractable likelihood
0.6893666984	numerical studies
0.6890211363	credit
0.6890059762	obesity
0.6888948411	team
0.6888444244	noisy data
0.6887854593	finite sample performance
0.6887744703	copula model
0.6886182654	vehicle
0.6886182654	spanning
0.6883958510	inference procedures
0.6883411390	proposal distribution
0.6880864266	cosine
0.6880452349	low dimensional subspace
0.6880330644	observed variables
0.6877993314	existing algorithms
0.6876979746	parametric models
0.6875800747	simulation results
0.6872160766	sparse signal
0.6871175454	real world data
0.6870559627	definite matrices
0.6868306219	tmle
0.6863923899	instrument
0.6863923899	thermodynamic
0.6863923899	conceptual
0.6863923899	polytope
0.6861702897	bootstrap method
0.6858679550	bayesian context
0.6856540772	bilinear
0.6854441710	bayesian methods
0.6853193110	dynamic models
0.6847767518	sparse matrices
0.6846188123	convex penalties
0.6845904923	hidden states
0.6844145077	robust inference
0.6841531066	matrix vector
0.6838361495	eta
0.6837424376	subsampling probabilities
0.6837378236	heart
0.6836349591	party
0.6835909539	mm
0.6835565405	n_
0.6834620297	imagery
0.6833959271	ensemble methods
0.6830448621	shapley
0.6829866129	adaptive importance
0.6829157152	uniform sampling
0.6828906471	gene expression data
0.6828239472	generalized exponential
0.6826778570	partition function
0.6824915175	adaptive rejection
0.6824907897	crime
0.6824907897	pilot
0.6824096523	computational statistics
0.6819522069	mechanical
0.6819522069	folding
0.6808643094	astronomy
0.6808003120	ordinary differential
0.6807097154	horseshoe
0.6806644813	alternating direction method
0.6803570777	maximum likelihood estimates
0.6803095541	mcmc algorithm
0.6800820163	monte carlo approximation
0.6798998107	statistical model
0.6797502226	support vector
0.6796226352	galaxy
0.6791346451	orders of magnitude
0.6787696433	statistical learning
0.6787612812	parties
0.6783738090	cognitive
0.6782677964	varphi
0.6779990064	ultra
0.6777252356	bayesian model
0.6772743863	statistical modeling
0.6771940286	electronic
0.6771561720	markov chain monte carlo algorithms
0.6771467555	leave one out cross validation
0.6769643745	retrieval
0.6769643745	radial
0.6766526950	engine
0.6765587660	schmidt
0.6764551853	estimation method
0.6757971528	newton method
0.6757056456	bayesian inverse problem
0.6755942699	hundreds of thousands
0.6755649872	gaussian process model
0.6754773869	recent developments
0.6754170069	monte carlo samplers
0.6752112790	bayesian perspective
0.6751920083	spatial data
0.6751100116	significantly outperforms
0.6748648628	scalable bayesian
0.6747550586	hashing
0.6745782582	balancing
0.6743443974	goodness of fit
0.6743308643	sampling schemes
0.6742957030	circuits
0.6742782310	mathematical models
0.6742296342	proposed methods
0.6742079023	command
0.6739165673	exact bayesian inference
0.6736565350	potts
0.6735691709	prediction accuracy
0.6732003553	hydraulic
0.6731906810	accelerated failure time
0.6730416713	polynomial regression
0.6726048647	prior distributions
0.6723637865	model calibration
0.6723209863	random matrix
0.6721663586	bayesian inversion
0.6719944125	student
0.6718059428	rank based
0.6716863530	fast mixing
0.6716760537	distribution function
0.6714437170	national
0.6713019976	prior information
0.6712658525	color
0.6708458770	riemannian
0.6706483257	fmri data
0.6705087306	benchmark datasets
0.6704958158	stochastic gradients
0.6702894530	wang
0.6701916605	adjoint
0.6699125828	streaming data
0.6698085543	pareto
0.6697378849	dimensional case
0.6696009217	existing approaches
0.6695305871	additive models
0.6694088436	bayesian optimal
0.6693909811	stochastic kinetic
0.6693680025	low rank approximation
0.6692781275	organization
0.6691270122	input space
0.6691156647	gaussian distributions
0.6690791676	weibull
0.6690255896	cellular
0.6689648311	auxiliary information
0.6688520151	random graph models
0.6687854915	master
0.6687854915	supply
0.6687217832	star
0.6686983852	accurate estimates
0.6686960939	unknown parameters
0.6686911506	gaussian cox processes
0.6685765400	parallel mcmc
0.6685345491	gauss
0.6683196544	linear regression models
0.6682712020	failure probability
0.6682110378	model based
0.6681881697	dimensional space
0.6681840720	descent algorithm
0.6681794923	bayesian analyses
0.6681490947	computational aspects
0.6681258852	x_1
0.6680087557	expected posterior
0.6678617062	symbolic
0.6678020268	ensemble based
0.6677070545	duration
0.6676269483	optimization algorithms
0.6675875354	point of view
0.6673999789	intersection
0.6673096403	special structure
0.6672724674	gaussian random
0.6672263232	test functions
0.6670687756	hierarchical modeling
0.6669887716	fitness
0.6669188070	highly efficient
0.6668664427	challenging task
0.6667978437	mle
0.6662761653	nonconvex optimization
0.6659008666	bayesian additive
0.6654190135	games
0.6652401745	inla
0.6650576222	granger
0.6650576222	mahalanobis
0.6650243640	autoregressive models
0.6646666844	multivariate distributions
0.6646125886	oed
0.6642653527	flux
0.6642112876	covariance functions
0.6640931132	mathematics
0.6639643847	clt
0.6639154619	optimal control
0.6639103841	sparse estimation
0.6637128406	statistical properties
0.6635564598	small sample
0.6635078355	curse of dimensionality
0.6634687691	sa
0.6633901140	sampling strategies
0.6633300699	divide and conquer
0.6633236685	andrieu
0.6630936712	dependence structures
0.6630269435	stop
0.6628440135	chart
0.6626182683	error estimation
0.6624892017	factorial
0.6624309893	cholesky
0.6622583183	bayesian models
0.6620459439	mds
0.6617850465	urban
0.6617769897	bma
0.6617769897	snr
0.6617726495	gravitational
0.6617629218	kinetics
0.6617629218	vision
0.6616579073	neuroimaging
0.6615564004	regression coefficients
0.6612222638	psi
0.6606271431	spike and slab
0.6605777712	logistic regression models
0.6605626800	cwm
0.6602358770	distribution free
0.6602293032	volatility models
0.6601518601	cd
0.6598074815	shear
0.6598074815	virus
0.6594945425	paper proposes
0.6594005790	multi scale
0.6592259798	bayesian paradigm
0.6591421960	asymptotic convergence
0.6591392840	hermite
0.6591375518	irt
0.6591345684	pml
0.6589987350	pollution
0.6589964718	tukey
0.6589779788	surveillance
0.6588708530	exact computation
0.6588684750	substantially improve
0.6587942456	accurate estimation
0.6587898741	multiple change point
0.6585724094	grain
0.6585427612	seq
0.6583661990	extracting
0.6582787950	lcdm
0.6581922302	estimation problem
0.6581333409	ss
0.6581262979	percentage
0.6580709420	bart
0.6578054997	pt
0.6573103101	security
0.6571804212	sampling scheme
0.6571787276	circle
0.6571191577	copula based
0.6570440720	random walk metropolis
0.6570055344	stochastic simulation
0.6567777511	section
0.6567431615	hierarchical clustering
0.6563564627	minimization problem
0.6563358720	l1
0.6560381724	variance estimation
0.6559689067	markovian
0.6558536668	tv
0.6558110230	open data
0.6556329906	meta model
0.6556312305	predictive distributions
0.6555815401	gwas
0.6555511465	evaluation points
0.6553736847	fully bayesian
0.6553104253	link function
0.6552810048	model misspecification
0.6552754452	enkf
0.6552748544	conditional density
0.6551804997	cg
0.6551332722	lmc
0.6550816685	ips
0.6550536877	ad
0.6550353341	viterbi
0.6549881262	parallel computation
0.6548974319	anova
0.6548974319	arima
0.6548337276	model uncertainty
0.6545708430	partial differential
0.6543716804	cosmological
0.6542039713	fast algorithms
0.6540722579	fuel
0.6539751626	x_
0.6539595935	exact sampling
0.6538170906	euler
0.6537498356	probit models
0.6536119965	exact simulation
0.6534379666	multiplication
0.6533634402	joint models
0.6533111958	saem
0.6532388167	ancestor
0.6531988784	inference problems
0.6528445589	meta models
0.6527786939	mild conditions
0.6527588352	workers
0.6527588352	crude
0.6526450769	dynamical models
0.6526229169	sequencing
0.6523860229	word
0.6523459472	stochastic gradient mcmc
0.6523398668	bps
0.6523394802	gradient evaluations
0.6521117628	mixture of normals
0.6519787806	air
0.6515396247	synthetic examples
0.6515026417	parallel implementation
0.6514923938	data generating process
0.6514283720	euclidean
0.6513762304	game
0.6513112865	ols
0.6512993875	cca
0.6512993875	kde
0.6512993875	fft
0.6512874079	dempster
0.6512874079	kac
0.6512290433	log likelihood function
0.6511305882	proposed algorithms
0.6510619392	competing models
0.6510370759	sample covariance
0.6509121389	gradient method
0.6506304276	gg
0.6505480077	fast approximate
0.6505382554	probability density functions
0.6505210302	correlation structures
0.6505185569	gaussian kernel
0.6502942565	sufficient conditions
0.6500639909	approximation errors
0.6500562499	ais
0.6499877251	diffusion process
0.6498036485	cox process
0.6497699220	vector machine
0.6496011348	spatial processes
0.6494713233	cvar
0.6494301006	design points
0.6493682743	markers
0.6492429369	real world datasets
0.6490627309	computational speed
0.6489795903	state estimation
0.6488711320	ice
0.6488697588	volterra
0.6488611659	ge
0.6488269154	efficient computation
0.6488048641	b spline
0.6487519643	particle based
0.6487340489	statistical applications
0.6486622364	pmc
0.6486580727	bayesian hierarchical model
0.6485763752	conditional distributions
0.6485515770	l_p
0.6485515770	monro
0.6485515770	robbins
0.6485515770	feynman
0.6484678022	ocean
0.6483280585	glmb
0.6478397973	gsr
0.6478147881	society
0.6476662170	characteristic functions
0.6476630822	instruments
0.6476630822	reuse
0.6476630822	disjoint
0.6474776375	linear mixed effects
0.6474571721	lagrangian
0.6473139216	digital
0.6470781054	quantile estimation
0.6470163431	directional
0.6470040143	sparse learning
0.6468614084	particle swarm
0.6468484321	sqmc
0.6466758398	planning
0.6466494159	icl
0.6466468637	computationally feasible
0.6466141791	smc algorithms
0.6466021679	plant
0.6463951492	resulting estimator
0.6463193709	city
0.6461562810	cs
0.6461011233	na
0.6460007666	reverse
0.6459661027	arm
0.6459631046	minima
0.6458993185	tomography
0.6456590628	vehicles
0.6454843728	nonlinear state space
0.6454791118	standing
0.6454501102	ess
0.6454501102	rqmc
0.6453946279	svrg
0.6453946279	cmb
0.6453946279	psdmf
0.6453460447	row and column
0.6452401069	cran
0.6449463747	attachment
0.6449307947	curvature
0.6448645467	multi target
0.6448399293	data collection
0.6448292089	mutation
0.6446351882	simulated and real data
0.6444596481	iterative procedure
0.6444340049	dependence structure
0.6444301152	paid
0.6443138044	channels
0.6443022826	selection criterion
0.6442952519	trading
0.6442613638	promising results
0.6442508325	prd
0.6442457555	x ray
0.6441638964	ai
0.6441638964	nlm
0.6441638964	snp
0.6440728933	model outputs
0.6436934414	practical applications
0.6434975313	lse
0.6434975313	sbm
0.6434796249	random samples
0.6432913123	pca
0.6431614848	significantly faster
0.6431141375	zero inflated
0.6431045854	svm
0.6429697078	coordinate descent algorithm
0.6428644955	convex optimization problems
0.6427784576	discrete distributions
0.6426769304	posterior uncertainty
0.6423776278	latin
0.6423272719	slow convergence
0.6422850273	qqmm
0.6422683279	c tmle
0.6420619160	phd
0.6419699064	ps
0.6419461463	theorems
0.6419227940	analytics
0.6418577876	computational framework
0.6418492841	mpi
0.6417978982	complex problems
0.6416709357	cdf
0.6416032225	acv
0.6416032225	dnn
0.6415744795	le
0.6415727175	cusum
0.6414479596	ba
0.6414130477	asymptotic distribution
0.6411493226	shot
0.6409951927	demonstration
0.6409951927	remote
0.6407771159	loop
0.6405657396	em algorithms
0.6405575106	type i error
0.6405350035	low complexity
0.6405325961	spin
0.6404756953	risk factors
0.6404210432	pep
0.6404210432	sl
0.6403858810	optimal solution
0.6402499679	service
0.6402042263	preferential
0.6401530949	bimc
0.6401530949	rds
0.6401072822	protein
0.6400385304	dp
0.6399963903	fusion
0.6399619845	coefficient of variation
0.6398928871	swarm
0.6398928871	microarray
0.6398810238	gaussian prior
0.6398487591	proposed estimators
0.6397100329	latent state
0.6396011838	df
0.6396011838	qda
0.6394086543	surrogate based
0.6393801356	dct
0.6393155053	rjmcmc
0.6393155053	gmm
0.6393155053	qp
0.6393079139	model evaluations
0.6393041913	parallelize
0.6392619576	pc
0.6390122051	fourier
0.6386943823	crucially
0.6386757245	generative model
0.6385873116	indicator
0.6385778350	maximisation
0.6383260108	iwae
0.6382285457	piecewise deterministic markov
0.6382280546	intelligence
0.6381951304	leveraging
0.6379244089	mcp
0.6378866089	temporal data
0.6378615707	eda
0.6378463710	lie
0.6378129729	brownian
0.6377659163	universal
0.6376713877	counter
0.6376713877	pressure
0.6376713877	feedback
0.6376713877	practitioner
0.6375267344	bts
0.6375267344	fim
0.6375267344	dpp
0.6373730014	ascent
0.6372908925	pmbm
0.6370257099	tvp
0.6369870304	nuts
0.6369477961	adversarial
0.6369328778	dots
0.6368234030	log posterior
0.6366935829	bp
0.6366768192	rao
0.6365497150	lossless
0.6363969614	process emulation
0.6361754641	svd
0.6361668632	unadjusted
0.6360057403	gpr
0.6360057403	ars
0.6360057403	ms
0.6355829469	underline
0.6354080027	ce
0.6354080027	pls
0.6351606307	mobility
0.6349379242	complete data
0.6349035827	autoregression
0.6348627803	variance reduction technique
0.6345702029	metropolis adjusted langevin
0.6345507304	aic
0.6345099909	quantization
0.6344987214	atmospheric
0.6342979084	display
0.6342497968	semiparametric
0.6342364774	easy to implement
0.6340367522	competing methods
0.6338529007	variance estimator
0.6338235159	global minimum
0.6337874042	arma
0.6337485458	zeta
0.6337477902	comparative
0.6335939320	gsa
0.6335462022	cp
0.6335458003	gm
0.6334891213	latent space
0.6334161729	api
0.6332064250	cme
0.6331695458	abc
0.6331059936	ahead
0.6331059936	infrastructure
0.6331059936	template
0.6330684648	similarly
0.6330435916	ddeo
0.6330435916	mcem
0.6329436888	gp regression
0.6329033272	fast computation
0.6328945466	difficult problem
0.6328222791	tmcmc
0.6328222791	mtm
0.6326759380	convergence results
0.6326601575	fdr
0.6325706638	roberts
0.6322347223	terminal
0.6321122494	linear regression model
0.6318568050	dimensional settings
0.6314941306	kolmogorov
0.6314639229	corpus
0.6314532394	wave
0.6314411563	mio
0.6314378908	auc
0.6314077320	hmm
0.6313026136	bet
0.6312739782	pursuit
0.6312732878	pricing
0.6310838405	mse
0.6309738514	composition
0.6309475128	tracking data
0.6308186171	standard abc
0.6308157243	simulated datasets
0.6307599318	sde
0.6307326315	wasserstein
0.6306673445	dark
0.6306673445	olkin
0.6305186153	mra
0.6305024637	sir
0.6304943460	incremental
0.6303302664	frame
0.6303302664	channel
0.6303069207	gr
0.6302935264	gmrf
0.6302935264	rmse
0.6301762773	pg
0.6301545990	mcmc
0.6301250348	gp
0.6301241733	classify
0.6300625112	thompson
0.6299517019	posterior computation
0.6299484651	riemann
0.6299484651	stiefel
0.6299338922	ultimate
0.6297229492	json
0.6296614729	algorithm converges
0.6291504664	ica
0.6290304421	forest
0.6289310845	bias variance
0.6288881617	sr
0.6287499730	phylogenetic
0.6286946062	sampling problem
0.6286849816	scad
0.6285859021	distribution functions
0.6285580378	ode
0.6285193576	media
0.6284129870	blb
0.6284129870	lars
0.6283307371	ep
0.6282935803	ns
0.6282685371	content
0.6282221653	performing inference
0.6280433717	sobol
0.6280121703	bsl
0.6279552570	python
0.6279322227	optimal proposal
0.6278429665	financial data
0.6278393057	bayesian regression
0.6277499016	soft
0.6277440910	adjacency
0.6276537736	mrf
0.6274209516	cv
0.6273154893	bf
0.6272997407	bipartite
0.6272997407	integers
0.6271599406	analysing
0.6269557305	hit and run
0.6269286736	gaussian graphical
0.6269168630	em type
0.6268980024	squarem
0.6268202917	item
0.6266156416	diagnostics
0.6265590504	np
0.6264639842	efficient simulation
0.6262066443	high dimension
0.6261474536	pr
0.6261241983	arch
0.6260676362	optimization based
0.6260458984	angular
0.6260121703	mala
0.6259913311	political
0.6256946845	unbiased estimation
0.6253909618	checking
0.6252675737	outlier
0.6252156394	alternating direction
0.6252125685	inner product
0.6251249037	hit
0.6250786069	mcmc method
0.6249583762	trans
0.6247150976	load
0.6246052150	periodic
0.6245511553	track
0.6245354999	empirical performance
0.6245225534	proposed framework
0.6244091434	lda
0.6243920862	mechanics
0.6243198474	license
0.6243198474	alarm
0.6242044989	learning rate
0.6240813933	material
0.6240206542	estimation error
0.6239813456	convex optimization problem
0.6239500276	large data
0.6237783270	vb
0.6236956296	scoring
0.6236812648	adaptive markov chain monte carlo
0.6236621729	minimization problems
0.6236494120	commercial
0.6236494120	continuity
0.6236006468	virtual
0.6235811374	partial least squares
0.6235711351	qmc
0.6234705806	kernel methods
0.6232529595	gis
0.6232529595	mi
0.6230915698	gpu
0.6230621156	limited number
0.6230070773	newton
0.6230043468	smoothing algorithms
0.6229736811	similar results
0.6229608242	cox
0.6227940758	numerical comparisons
0.6227166875	fisher
0.6226160775	hessian
0.6225487524	care
0.6225463156	compositional data
0.6224930272	coming
0.6224703881	mr
0.6223875987	extensive simulation study
0.6223553949	gl
0.6223553949	ssm
0.6223553949	rto
0.6223553949	simd
0.6223553949	hd
0.6223553949	ip
0.6222966238	contour
0.6221982083	data depth
0.6221942952	mmd
0.6221942952	rwm
0.6220549304	data structures
0.6220519066	labeled
0.6219709228	seismic
0.6219478554	traffic
0.6218790917	economic
0.6218734330	glm
0.6218003195	convergence result
0.6217155454	cpu
0.6217151593	simulation studies and real data
0.6217042178	composed
0.6216095471	aft
0.6216095471	bss
0.6216095471	sar
0.6215825743	abc posterior
0.6214390824	momentum
0.6213072873	scope
0.6212778234	cran.r project.org package =
0.6212321466	dag
0.6212321466	ca
0.6211607482	cone
0.6211127999	bernoulli
0.6211095066	uq
0.6209605306	quantifying
0.6208618178	next generation
0.6207762544	sim
0.6207489017	panel
0.6207310116	clustering algorithms
0.6206990613	delayed
0.6206956081	experts
0.6205869482	simulated examples
0.6205826645	spatial resolution
0.6205816511	climate
0.6204798791	aggregate
0.6201362885	operational
0.6199480116	asymptotic properties
0.6199210233	oem
0.6198133091	da
0.6194871073	input data
0.6193660735	previously proposed
0.6193525548	vi
0.6191557803	posterior simulation
0.6191052645	pseudo marginal mcmc
0.6190889355	walks
0.6190396591	loo
0.6189787391	ann
0.6188733954	dt
0.6188157807	admm
0.6187775134	inferring
0.6186504235	bic
0.6186488315	xi
0.6185567357	pdmps
0.6183521032	pde
0.6182619776	data type
0.6180211725	detailed analysis
0.6179739590	bfgs
0.6179240790	raw
0.6178924176	order of magnitude
0.6178669521	lines
0.6178475935	gsvd
0.6178193951	insurance
0.6176111513	resulting algorithm
0.6175984125	anomaly
0.6175849331	parameter dimension
0.6175212675	optimal solutions
0.6175185967	agent
0.6173898117	hilbert
0.6173386491	smc
0.6171478972	rmhmc
0.6171305536	satellite
0.6170155276	dose
0.6169897956	proposed test
0.6169438806	real world applications
0.6169375350	spatial dependence
0.6169042607	mixture components
0.6168049998	cost function
0.6167077503	criticism
0.6167077503	weather
0.6166885658	extending
0.6166643797	monte carlo sampling
0.6166577840	point estimates
0.6166101314	robust estimators
0.6165245638	medical
0.6164274455	artificial and real
0.6163660196	ans
0.6162469319	mlmc
0.6161583509	abc algorithms
0.6161579689	query
0.6160749383	random finite
0.6158330717	processing unit
0.6158271661	probabilistic model
0.6158157807	mh
0.6156745380	based estimation
0.6156281240	simulated and real data sets
0.6156211728	simplex
0.6154785337	informed
0.6153393438	results suggest
0.6152628034	preconditioned
0.6152524044	bugs
0.6151695761	division
0.6150835870	mis
0.6149759706	sgmcmc
0.6148505040	pcs
0.6148454585	abc methods
0.6146877024	odds
0.6146877024	drive
0.6146629821	predictive models
0.6143395880	corrected
0.6143368653	independence sampler
0.6143125710	exploratory
0.6141238711	paris
0.6138095297	sgld
0.6135646228	force
0.6134326906	handling
0.6134009485	affine
0.6132325113	right censored
0.6131437513	visual
0.6131238648	predictive distribution
0.6131062176	pdmp
0.6130081156	bootstrap based
0.6129513388	justification
0.6129375710	correspondence
0.6129221569	mean square error
0.6129118635	bayesian framework
0.6128550891	theoretical result
0.6126508744	maximum likelihood estimators
0.6125273961	truncated multivariate
0.6124539597	economy
0.6124177854	personalized
0.6123744655	simulated and real
0.6123491776	linear inverse problems
0.6123351149	ar
0.6122019040	monte carlo markov chain
0.6118685810	calibrated parameters
0.6118223621	sparse pce
0.6117682967	localization
0.6116290395	pass
0.6116216508	macsim
0.6115531556	real data analysis
0.6114993433	sign
0.6114381140	gans
0.6113826655	ergm
0.6113715112	markov jump
0.6113294958	conjecture
0.6111238754	searching
0.6110029345	rs
0.6109866333	generalizations
0.6109606785	regression problem
0.6109464500	glass
0.6109397584	ct
0.6109353100	compressive
0.6107056988	des
0.6106052452	perturbation
0.6104639458	economics
0.6103831330	operating
0.6103816199	sampling method
0.6103105411	fundamental problem
0.6102960109	exact solution
0.6102334374	var
0.6101326126	widely applied
0.6098743346	svms
0.6098449784	sgd
0.6098419907	compositional
0.6097141510	data generating
0.6096782659	capacity
0.6095602027	efficient implementation
0.6094590246	snps
0.6092997993	random parameters
0.6091139801	recognition
0.6089686618	measuring
0.6088048482	applications involving
0.6087794181	arms
0.6086700036	stratified
0.6086694940	sas
0.6086060557	based methods
0.6086019722	tree based
0.6083428737	response variables
0.6083161714	laplace
0.6082869926	tau
0.6082623518	birth
0.6081854394	rapid
0.6081347818	best subset selection
0.6081095849	lgms
0.6081095849	ergms
0.6077832190	mises
0.6076450841	high computational cost
0.6074032763	mc
0.6072935408	rational
0.6071695654	splitting methods
0.6070616343	quadratically
0.6069243156	complement
0.6069193007	error estimates
0.6068574499	omega
0.6068211388	small scale
0.6067345370	covid 19
0.6067169592	semidefinite
0.6067076466	invariance
0.6064897236	estimation accuracy
0.6064795982	square error
0.6061587749	optimization approach
0.6060861314	model class
0.6059393532	elliptic
0.6059072334	stock
0.6058322770	hypercube sampling
0.6057108995	net
0.6056641081	calibrate
0.6056271114	pseudo marginal metropolis hastings
0.6055809891	nested laplace approximation
0.6054603616	computing environment
0.6053042567	bayesian posterior
0.6052792458	qoi
0.6050904625	langevin
0.6050802410	union
0.6050795853	integrating
0.6050525602	portfolio
0.6050525602	emission
0.6048785387	sc
0.6048392555	method of moments
0.6047851537	monte carlo techniques
0.6047480199	ei
0.6045982763	computational methods
0.6045281319	database
0.6044269640	architecture
0.6043872582	death
0.6043325725	algebraic
0.6043242343	gams
0.6042401733	results obtained
0.6040268459	equilibrium
0.6040168089	mles
0.6039654485	hpc
0.6039654485	spde
0.6039189749	gmrfs
0.6037604956	member
0.6037604956	accumulation
0.6037231712	industry
0.6035590216	simulated and real data examples
0.6035471901	instrumental
0.6035462083	ordered
0.6034034149	queso
0.6034032763	ml
0.6032100508	jags
0.6031060904	bayesian modeling
0.6030995054	sis
0.6030892376	completion
0.6028777448	pmcmc
0.6028730109	design criterion
0.6028330166	exp
0.6027694625	pf
0.6027516200	special case
0.6026660348	graphics
0.6025317797	availability
0.6025086723	array
0.6024478839	fc
0.6022575837	mcmc scheme
0.6021363528	consensus
0.6019570156	vine
0.6018994394	bs
0.6018957692	density functions
0.6018707675	lasso penalty
0.6017582914	reservoir
0.6017582914	personal
0.6017582914	harmonic
0.6016790179	misspecification
0.6016599498	automated
0.6015639117	location and scale
0.6015629314	center
0.6011744034	glmms
0.6010886983	arithmetic
0.6009531299	efficient sampling
0.6008318695	voting
0.6008035519	large sample sizes
0.6007517522	smirnov
0.6006026537	web
0.6005800641	guide
0.6003719703	differs
0.6003672541	discovery
0.6001280126	proposed estimator
0.5999622557	inference tasks
0.5999455941	recent advances
0.5999045372	discretely
0.5997795653	geometrically
0.5997232940	neighbor
0.5995906640	restrictions
0.5994653835	determination
0.5991818988	profile
0.5991640367	reweighted
0.5990895390	deriving
0.5984474755	careful
0.5984098313	variational methods
0.5984011030	exact algorithm
0.5983560593	b splines
0.5983047116	benchmark problems
0.5982949724	forward model
0.5982121563	interior
0.5981521734	shannon
0.5981038385	alchemist
0.5981038385	edward
0.5981038385	rcpp
0.5981038385	gerber
0.5981038385	chopin
0.5981038385	openmp
0.5980661245	log density
0.5980128077	pseudo random
0.5977643753	sum_
0.5975899582	volatility model
0.5975825850	surfaces
0.5975220672	challenging problem
0.5972986353	linear constraints
0.5972812471	main contribution
0.5971452758	ssms
0.5970769190	symmetry
0.5969960064	breaks
0.5969960064	envelopes
0.5969464483	sums
0.5969098637	relevance
0.5967371018	dirichlet
0.5967333168	white
0.5966944153	range dependence
0.5966268433	x_j
0.5965313789	rate of convergence
0.5964453617	formulae
0.5964352963	alternative approaches
0.5962616062	splitting method
0.5962608350	low cost
0.5961894109	segmentation
0.5960999958	belief
0.5960710504	sem
0.5957314954	symmetric positive
0.5954785852	text
0.5953759015	penalty functions
0.5953037313	competitive performance
0.5952877509	meet
0.5952877509	fluid
0.5952359684	streams
0.5951856093	quasi monte
0.5951351084	jump processes
0.5951191301	lp
0.5950888842	convexity
0.5949980369	mutual
0.5947758811	newly
0.5947135355	proposal density
0.5946914930	transportation
0.5945968289	monte carlo estimator
0.5943798562	check
0.5943182338	identity
0.5942745681	action
0.5941825284	classification methods
0.5940569916	proposed model
0.5938142403	trace
0.5937435767	stat
0.5935809706	period
0.5935779371	accurate inference
0.5935149386	standard monte carlo
0.5934292817	shared
0.5934023941	ill conditioned
0.5933433998	general conditions
0.5932615076	magnetic
0.5932106100	ultrahigh
0.5931794060	reversible markov
0.5931565072	bayesian logistic
0.5930703289	safety
0.5930238689	sum of squares
0.5927928148	response variable
0.5927853994	gpus
0.5925679816	neal
0.5925508318	lasso
0.5925322012	vector machines
0.5924863673	wind
0.5924271212	configuration
0.5923952263	dimensional subspace
0.5922635849	majorization
0.5922428182	tensorflow
0.5922428182	u.s
0.5922428182	lastly
0.5922428182	bingham
0.5920084018	minorization
0.5919953887	nuclear
0.5919939493	clustering and classification
0.5918141965	monte carlo estimators
0.5917053121	record
0.5916691396	neuroscience
0.5916305554	spherical
0.5915958296	limit theorem
0.5915267786	parts
0.5914488413	multilevel monte
0.5913197453	environments
0.5911315046	bandit
0.5908926429	probability of failure
0.5907396580	utilizing
0.5907227581	semismooth
0.5907227581	gold
0.5907227581	reproducing
0.5905082553	approximation methods
0.5905035529	metropolis hastings
0.5904553793	ising
0.5904266672	logistic regression model
0.5903710615	meta
0.5903029939	sinkhorn
0.5903029939	planck
0.5903029939	whittle
0.5903029939	archimedean
0.5903029939	hadamard
0.5903029939	jeffreys
0.5903029939	gaussianity
0.5902187868	improved performance
0.5902059227	chen
0.5901735740	slab priors
0.5901034409	jacobi
0.5901034409	nesterov's
0.5901034409	kingman
0.5901034409	hurst
0.5901034409	statist
0.5901034409	lee
0.5901034409	wald
0.5901022177	transmission
0.5900943077	forests
0.5900861505	emphasis
0.5900491649	student's
0.5899529353	metropolized
0.5899529353	lindley
0.5898912116	glms
0.5898270607	feasibility
0.5897645657	multiplicative
0.5897401421	row
0.5897364907	calibrated
0.5897042015	hierarchical model
0.5897031682	computers
0.5896065835	sacrificing
0.5894230001	original problem
0.5894022567	portion
0.5893951941	univariate and multivariate
0.5893302360	odes
0.5892963052	appearing
0.5892640668	aiming
0.5891676380	quantum
0.5891465514	genome
0.5891051382	hoc
0.5890828217	upper and lower
0.5888397122	pmmh
0.5888099217	moving
0.5885243143	ensembles
0.5884423212	sufficient dimension
0.5884420364	numerical study
0.5884313860	coding
0.5883885967	kalman
0.5881074646	twitter
0.5881074646	laguerre
0.5881074646	india
0.5881074646	wolfe
0.5881074646	frank
0.5881074646	pitman
0.5881074646	gelman
0.5881074646	watson
0.5881074646	keywords
0.5881074646	kendall's
0.5881074646	rooney
0.5880220141	causality
0.5879093811	state inference
0.5877934244	variance based
0.5877009836	unbiased estimator
0.5876387750	differentiation
0.5875066630	carlo samples
0.5875008645	permutation
0.5874404452	poisson
0.5874284780	ill posed
0.5873647242	optimize
0.5873571993	cloud
0.5871728246	fearnhead
0.5870260847	markov kernel
0.5869340234	lexis
0.5869340234	anderson
0.5869340234	l2
0.5868718021	noisy measurements
0.5868134924	matlab
0.5867765029	vecchia
0.5867765029	frobenius
0.5867419403	market
0.5867319668	acyclic graph
0.5865006651	hmc
0.5863272673	label
0.5863017031	concentration
0.5862796866	optimization methods
0.5861978360	multivariate time series
0.5861904715	infection
0.5857203926	bayesian setting
0.5856570451	sophisticated
0.5854775336	shift
0.5854040693	carlo methods
0.5853818566	resource
0.5853675459	heat
0.5853255573	chemical
0.5853234255	science and engineering
0.5853019330	computer model calibration
0.5852836477	combinatorial
0.5852076715	toolbox
0.5850522751	markov model
0.5850033216	retaining
0.5849429129	elastic
0.5848622689	inference problem
0.5847691236	guided
0.5846302250	hamiltonian
0.5845921923	polya
0.5845921923	bernstein
0.5843426772	mining
0.5843170867	max
0.5841988204	likelihood evaluations
0.5841268362	denoising
0.5841090369	olya
0.5837438863	byproduct
0.5837438863	ups
0.5837425941	intrinsic
0.5836046229	random vector
0.5835460706	equipped
0.5835460706	resort
0.5834781739	em
0.5834237243	sorting
0.5833799817	statistical tools
0.5833548846	x_i
0.5831363538	faster convergence
0.5829492719	suite
0.5828326948	method achieves
0.5827163760	determinant
0.5826588289	autocorrelation
0.5826038457	posterior probabilities
0.5825684496	trials
0.5824980219	robert
0.5824436464	interpret
0.5823959607	blockmodel
0.5823959607	appeared
0.5823959607	breast
0.5823002278	smooth functions
0.5822893148	numerous applications
0.5821978038	applications include
0.5821972743	gaussian
0.5819893782	fbst
0.5819697488	machine learning methods
0.5819690076	proportion
0.5818056019	bregman
0.5816590730	hazards
0.5816370424	multipliers
0.5816106413	filtering and smoothing
0.5815048349	degeneracy
0.5814521665	shiryaev
0.5814186208	l_2
0.5814019478	autoregressive
0.5812613441	journal
0.5812503341	regression and classification
0.5811089934	crossed
0.5811076171	backward
0.5810840552	drug
0.5808096740	binomial
0.5808032395	transfer
0.5807953097	sdes
0.5807953097	hmms
0.5807347853	hellinger
0.5807347853	dantzig
0.5807347853	wright
0.5807347853	doucet
0.5806726302	vertex
0.5806112029	weighting
0.5805824357	probabilistic graphical
0.5805582671	phi
0.5804836639	document
0.5804720373	input variables
0.5804438906	survey
0.5803500276	cheap
0.5803101290	maximizing
0.5801857728	stream
0.5801124997	monitoring
0.5798664083	parameter spaces
0.5798203616	thresholding
0.5796729440	celebrated
0.5796729440	dealt
0.5796307695	model fit
0.5794680059	parsimonious
0.5794014520	multinest
0.5792014186	exploiting
0.5792004467	model complexity
0.5791685851	nonconvex
0.5791555047	united
0.5788701343	unbiased estimate
0.5788410005	diagonal
0.5787798469	pdes
0.5787762276	motivating
0.5787372341	credible
0.5787091524	smc methods
0.5786513628	differentiable
0.5785464738	standard gibbs
0.5785142583	complementary
0.5784631125	aspect
0.5782581896	rho
0.5781216410	modeling framework
0.5780140883	inference methods
0.5779660018	finite mixtures
0.5777256650	finite state
0.5775705128	box
0.5775156029	employing
0.5774077503	primary
0.5774077503	guidelines
0.5772755297	stress
0.5772117437	evolutionary
0.5771211673	bayesian
0.5770162207	convergence analysis
0.5768883048	connections
0.5768123622	likelihood estimate
0.5766001650	inference and prediction
0.5765860575	rotation
0.5765609977	proposed procedure
0.5765283551	diversity
0.5764218915	package implementing
0.5760657575	oracle
0.5760583717	nearest
0.5760059587	replacing
0.5759975043	tangent
0.5759782445	probabilistic modeling
0.5759424251	amounts
0.5759424251	members
0.5759424251	treat
0.5759409665	algorithm runs
0.5756414413	s_
0.5756259523	recent research
0.5755688557	likelihood estimator
0.5753991878	direction method of multipliers
0.5753170223	strength
0.5752714169	medicine
0.5750599253	varimax
0.5748277019	cycle
0.5748108767	ray
0.5747899599	accelerated
0.5747408962	guaranteed
0.5745976504	speed and accuracy
0.5744588003	platform
0.5744358267	fused
0.5744183030	modern applications
0.5743427041	isotonic
0.5741020910	smoothing problem
0.5740703941	boosting
0.5739793023	infectious
0.5739756438	approx
0.5737499878	statistics and machine learning
0.5736584765	spectrum
0.5735147690	accompanied
0.5735147690	owing
0.5732931467	acceleration
0.5732331768	probit
0.5731940724	small samples
0.5731402401	conditionally
0.5730424984	target density
0.5730355984	services
0.5729754787	convolutional
0.5728870717	mice
0.5728809788	extracted
0.5728761870	mn
0.5728124596	directed
0.5727077751	model selection criterion
0.5725824815	stata
0.5724619023	unsupervised
0.5723885343	spark
0.5723103489	bias and variance
0.5722621799	optima
0.5722607963	shortest
0.5722406420	resonance
0.5721889464	markov
0.5719190750	smc method
0.5719158001	x_2
0.5718970370	kullback
0.5718467272	write
0.5717189017	estimation and prediction
0.5716958945	asymptotic results
0.5716781757	steady
0.5714504826	jaccard
0.5713810779	normals
0.5713808011	sphere
0.5713776489	regarded
0.5713776489	renewable
0.5711546515	reaction
0.5710593260	alternative methods
0.5710004357	gps
0.5707788732	lorenz
0.5707788732	tweedie
0.5706044357	agreement
0.5703968606	doubly
0.5699828857	posterior densities
0.5699716674	variations
0.5698586979	bit
0.5698157098	performance measures
0.5696675876	perform inference
0.5693625094	topology
0.5693133311	independent random
0.5692816409	discriminant
0.5692542280	optimal choice
0.5691358414	problems arising
0.5688516946	ecology
0.5688485204	separation
0.5688210323	acquisition
0.5687962517	high probability
0.5686332714	predictor variables
0.5686066935	cumulative distribution
0.5683529663	integrand
0.5683225415	stick
0.5682615255	search algorithm
0.5682460195	conditional distribution
0.5680935069	x_n
0.5680853882	bayes
0.5679719347	synthetic and real
0.5679152091	artificial
0.5679111062	spread
0.5678695417	cumulative
0.5677895813	adjusted
0.5677657837	inducing
0.5677112739	latent states
0.5677002838	state of art
0.5676752632	nimble
0.5676641681	sampling methods
0.5676591914	imaging
0.5676259220	interestingly
0.5676259220	levy
0.5676048186	theoretic
0.5675942114	contrary
0.5675636920	logarithmic
0.5675303263	demanding
0.5670868638	popular methods
0.5670124897	independent metropolis hastings
0.5669066356	theoretical and practical
0.5664930501	csmc
0.5664883190	chapter
0.5663460619	z
0.5662683767	resonance imaging
0.5662315990	calculating
0.5660651620	algebra
0.5660645958	red
0.5660221410	approximation algorithms
0.5660177735	paper describes
0.5659156291	maintain
0.5658130975	gaussian models
0.5657046355	generalised
0.5655081535	transition matrix
0.5654809499	predicting
0.5653286162	gap
0.5653041463	mean field variational
0.5652704854	linking
0.5652229619	exponential random graph
0.5651515665	training data
0.5651379717	reader
0.5650331058	factor model
0.5648002114	systematic
0.5644806609	detecting
0.5644415399	quadrature
0.5643811176	linear and nonlinear
0.5643542670	optimizing
0.5643055757	finance
0.5642894569	pearson
0.5642747272	ii
0.5642173122	entries
0.5641941676	mini
0.5641941676	reject
0.5640031567	shiny
0.5639943660	characterization
0.5639556192	quantiles
0.5639520390	equal
0.5639134910	multidimensional
0.5638866690	based estimators
0.5638136067	motion
0.5637181769	extensive numerical
0.5636189792	double
0.5635335357	illustrative
0.5635267696	linear combination
0.5635049867	plane
0.5634729961	daily
0.5634263190	kind
0.5633881501	data collected
0.5633545252	type algorithm
0.5632186466	high dimensional state
0.5629251701	derivation
0.5629050541	monte
0.5628755337	unbiased estimates
0.5628689961	stein
0.5628519715	data
0.5627965429	annual
0.5627965429	asymptotics
0.5627709529	proposed technique
0.5627366646	tailed distributions
0.5625272218	multiscale
0.5624647767	transformation based
0.5623823909	adjust
0.5623504945	equivalence
0.5621988698	test problems
0.5621978589	map
0.5621814370	pdfs
0.5621325711	fast and accurate
0.5620471204	table
0.5619891920	jackknife
0.5619351718	results demonstrate
0.5618598479	signal to noise
0.5617964814	inform
0.5617854459	norm minimization
0.5617628451	coupling
0.5616429237	mcmc schemes
0.5615584580	bayesian approaches
0.5615352710	specifically
0.5615091276	gaussians
0.5608454688	recently
0.5606692049	drawing
0.5605229084	langevin algorithm
0.5604869992	efficiency and accuracy
0.5604703926	classification problems
0.5603995248	leave
0.5602787719	approximation
0.5601505004	health
0.5600907367	geometry
0.5600874569	compressed
0.5599874486	monte carlo approximations
0.5599498015	indirect
0.5598432776	working
0.5598171390	fast
0.5597972176	aimed
0.5597767351	l_
0.5595654754	sigma
0.5593244730	problems involving
0.5592651767	rest
0.5592560133	tidy
0.5592543069	regression parameters
0.5589148889	spike
0.5587682735	slope
0.5585237145	structure
0.5585176686	implications
0.5583360316	belonging
0.5583360316	neighbour
0.5581782449	information
0.5581441850	recursive
0.5580617584	adaptive
0.5580408480	least squares
0.5579915474	management
0.5578515357	heteroskedasticity
0.5578515357	altogether
0.5578191992	interacting
0.5575632125	parameter expansion
0.5573816477	metropolis adjusted langevin algorithm
0.5572910958	exchange
0.5572671895	er
0.5571754059	pseudo posterior
0.5570573491	bar
0.5569867806	substantial computational
0.5569549774	theoretical framework
0.5568728738	identifying
0.5567290356	compression
0.5566818688	compact
0.5566192201	sorted
0.5566192201	entropic
0.5566192201	fractionally
0.5566192201	cohort
0.5566192201	attribute
0.5566192201	band
0.5565482385	convolution
0.5564475482	transition density
0.5563675481	modal
0.5563188326	discover
0.5562496622	goodness of fit test
0.5562007618	skew
0.5561650462	penalized maximum likelihood
0.5560002006	continuous time markov
0.5559742248	multiresolution
0.5559742248	discontinuity
0.5557543175	real and synthetic
0.5557432704	current methods
0.5556516765	comprehensive
0.5556304139	previous approaches
0.5555719915	investigates
0.5555630535	annealing
0.5555614666	presenting
0.5554840764	overview
0.5554555292	inclusion
0.5554514024	switching
0.5554189495	rescaled
0.5554189495	private
0.5554183399	hyperbolic
0.5552683080	iid
0.5552230687	contingency
0.5552130535	understanding
0.5551919947	assessment
0.5551912520	embedded
0.5551468116	splines
0.5549034206	existing literature
0.5548721188	hyper
0.5548215178	interpolation
0.5547574798	contribute
0.5546626994	dropout
0.5546621289	implementing
0.5545126204	counterfactual
0.5545079818	bouncy
0.5541541324	accuracy and computational
0.5540257456	absolutely
0.5540228551	fully bayesian inference
0.5539160061	optimal rate
0.5538825071	ads
0.5538519003	extensive simulation
0.5538287286	greedy
0.5537925411	hybrid
0.5537846862	imputation
0.5534468799	real and simulated
0.5533754359	molecular
0.5533603649	practical performance
0.5533393874	precisely
0.5532826356	stan
0.5532206048	belongs
0.5532169907	tempering
0.5531631584	global sensitivity
0.5530366581	option
0.5528326185	hastings
0.5524508429	bayesian information criterion
0.5524393744	propensity
0.5522252469	bootstraps
0.5522089426	correlation matrix
0.5521754719	conditional likelihood
0.5520990229	multilevel
0.5520476178	tutorial
0.5519162556	posterior
0.5517282664	regression
0.5515306968	asymmetric
0.5514705769	expensive to evaluate
0.5514335719	learning
0.5514170719	pp
0.5509900822	circumvent
0.5509762874	relaxation
0.5507811019	norms
0.5507476252	lipschitz
0.5507122389	adaptive gibbs
0.5507021199	robust
0.5506981710	definition
0.5506333846	train
0.5506029007	lambda
0.5505731115	model
0.5504423708	graphics processing
0.5504194498	replace
0.5504108242	model error
0.5503683811	optim
0.5503683811	swap
0.5503683811	diffusive
0.5503683811	differentially
0.5502325855	examples involving
0.5502278964	heuristic
0.5501847753	regression function
0.5501433165	abc algorithm
0.5500506540	inter
0.5500439431	linkage
0.5500162030	reduced model
0.5499721946	minimizing
0.5498231482	vectorized
0.5498231482	census
0.5498231482	positivity
0.5498231482	scheduling
0.5498231482	factorizations
0.5498231482	quickest
0.5497421188	base
0.5496775155	sum
0.5496372803	seeks
0.5496372803	expense
0.5495650477	law
0.5495446342	velocity
0.5495010000	turning
0.5493060661	variates
0.5491475545	based approaches
0.5491156828	approach yields
0.5491056008	julia
0.5490877407	decay
0.5490416132	factory
0.5489892475	slice
0.5489759337	introducing
0.5489055829	network structure
0.5487846652	leaf
0.5486397887	reconstruct
0.5486251972	monte carlo error
0.5485842203	pi
0.5483641140	lattice
0.5483463959	generalized
0.5481574488	policy
0.5481184520	almost surely
0.5480256413	dimensional integrals
0.5480136406	smc algorithm
0.5480085585	public
0.5479654033	ij
0.5478968116	coupled
0.5478691206	sample
0.5478052647	cortical
0.5477590283	p_
0.5476666476	probabilistic inference
0.5476080961	matrix
0.5475411621	statistical analyses
0.5475184376	proposing
0.5475072314	tune
0.5474012528	ground
0.5472903822	high dimensional settings
0.5471774993	large scale datasets
0.5471639370	unified
0.5470486638	life
0.5469909507	models
0.5469591300	assimilation
0.5469079118	ergodicity
0.5468756678	spatio temporal data
0.5468184294	variance
0.5468019114	semi
0.5467627226	scalar
0.5467186402	transitions
0.5465324970	enhancing
0.5464986747	curve
0.5464879321	cell
0.5463927981	space models
0.5463024887	iterative
0.5463002397	holonomic
0.5463002397	recommendation
0.5463002397	recycling
0.5462472911	piecewise
0.5462006149	optimal
0.5461801157	mean squared error
0.5461379893	results
0.5459788914	composite
0.5459303752	problem of finding
0.5459095744	simulators
0.5458715470	cure
0.5458410131	starting
0.5457572802	sided
0.5457208182	analysis
0.5455662272	iv
0.5455597398	communication
0.5455496102	versatile
0.5455496102	stages
0.5454421062	binomial regression
0.5454182875	sliced
0.5453653985	automatic
0.5453513854	computational
0.5452644105	model specific
0.5452398399	statistics
0.5450709429	unifying
0.5450510200	remarkably
0.5450432264	th
0.5450117320	rigorous
0.5449632480	suppose
0.5448694137	inflated
0.5448594818	probability
0.5448417928	canonical
0.5447821373	longitudinal
0.5447487029	handled
0.5447487029	occurrence
0.5447487029	contained
0.5447436511	practitioners
0.5446613678	sampling distribution
0.5446314230	dynamic
0.5446036117	general case
0.5445993092	drawback
0.5445569492	homogeneous
0.5442953843	simple
0.5442309986	element
0.5441254390	demand
0.5440036323	process
0.5439623285	adaptation
0.5438895777	accurate approximation
0.5437629893	approach
0.5436203891	ensemble
0.5435907737	real life data
0.5435841827	landscape
0.5435555337	efficiently compute
0.5435043141	causal
0.5431227384	photon
0.5431169923	simulation
0.5430780746	susceptible
0.5430763528	rates of convergence
0.5430482054	maximum
0.5430407139	proportional
0.5429415656	records
0.5429083387	nucleotide
0.5428759760	overhead
0.5427369837	test
0.5426898668	exciting
0.5426898668	fourth
0.5426898668	collocation
0.5425660360	bridge
0.5425146269	practical implementation
0.5424670160	hardware
0.5423803518	power
0.5423345647	prediction performance
0.5423290153	convergence
0.5422999205	production
0.5422106261	epidemic
0.5421779139	light
0.5421407203	zig zag process
0.5421404079	captured
0.5420203703	summarize
0.5420117974	distributions
0.5419683625	sensor
0.5417793561	match
0.5416519777	provide theoretical
0.5416469783	discrete times
0.5415075807	score function
0.5414766779	exact
0.5414681714	deliver
0.5414175725	firstly
0.5412609191	collapsed
0.5411736638	energy function
0.5410631564	covariance model
0.5410594358	supervised
0.5409904657	filtering
0.5408646387	consist
0.5408646387	intractability
0.5408400381	quantile
0.5407242229	networks
0.5404875055	exploration
0.5404680468	existence
0.5404449842	method's
0.5404449842	reason
0.5404071520	computation times
0.5403990426	emulation
0.5403896071	general
0.5403746364	efficient
0.5403407531	left
0.5401051851	imposed
0.5399428365	plug
0.5398959669	joint
0.5398518128	read
0.5397822247	stochastic
0.5397764425	continuous variables
0.5397721061	emulator
0.5397254835	partition
0.5397126532	coresets
0.5396962990	decentralized
0.5396962990	imperfect
0.5396962990	incurred
0.5396684766	post
0.5395972200	strong law
0.5395178285	validation
0.5394768989	differential
0.5394136651	beta
0.5393478000	am
0.5393365261	diagnosis
0.5393202891	clustering
0.5392152224	conformal
0.5392152224	selector
0.5391687651	linear
0.5391145233	carlo algorithms
0.5390716764	distributional
0.5390461859	proposed scheme
0.5389992054	score
0.5389163890	tensor
0.5388951188	linked
0.5388203973	polynomials
0.5387434276	traditional methods
0.5387217407	scale
0.5385994578	hastings algorithm
0.5384667883	maximum likelihood estimate
0.5383825112	algorithm
0.5382772867	assessing
0.5381274873	current
0.5380292112	determinantal
0.5379725791	orthogonal
0.5379188630	options
0.5377927438	graph
0.5377469975	carlo simulations
0.5376333927	randomized
0.5375658593	charts
0.5375374781	matter
0.5375167310	evolving
0.5375167310	maximize
0.5375057951	standard
0.5374654554	alternating
0.5373969199	ridge
0.5373567569	cancer
0.5373090306	analyzers
0.5372900800	computation cost
0.5372375727	numerical
0.5371713947	exercise
0.5371713947	visualizations
0.5371713947	linearization
0.5371713947	neighbors
0.5371713947	shifted
0.5371713947	deviance
0.5371713947	boost
0.5370790366	multivariate
0.5370016992	coordinates
0.5369859388	chi
0.5369141884	cope
0.5369141884	project.org
0.5369048887	selective
0.5369048887	mouse
0.5369048887	distortion
0.5368610356	quasi
0.5367285668	programs
0.5367270790	parallel
0.5365910273	numerous
0.5365025901	mitigate
0.5365025901	incorporation
0.5364744108	motivated
0.5364500606	global
0.5364431989	stochastic partial differential
0.5364126966	serve
0.5363792026	reduction technique
0.5363051895	sampling
0.5363010683	partially
0.5362892267	visualizing
0.5362892267	fuzzy
0.5362653988	empirical
0.5362466511	rd
0.5362260920	gamma
0.5361802089	batch
0.5361682827	statistical accuracy
0.5359876678	statistical and computational
0.5359416093	polynomial time algorithm
0.5358562840	inferred
0.5358511073	integrated
0.5358395352	illustration
0.5358186534	sampler
0.5356637454	nowadays
0.5356636729	screening
0.5356566114	column
0.5356327500	efficient inference
0.5356288119	statistics and machine
0.5354744994	model probabilities
0.5354162768	bridges
0.5353870262	y_
0.5352474941	covariance
0.5352037740	examples
0.5351514626	conditioning
0.5351094767	standard methods
0.5349863078	distinguish
0.5349683427	assisted
0.5349683427	tall
0.5349683427	entanglement
0.5349683427	technological
0.5349683427	nonparametrics
0.5349683427	blockwise
0.5349683427	contributed
0.5349683427	exclusive
0.5349683427	commodity
0.5349683427	user's
0.5349683427	distinction
0.5349683427	tradeoffs
0.5349683427	regional
0.5349683427	motifs
0.5349683427	bagging
0.5349683427	converging
0.5349059197	approximate
0.5348681775	parameter
0.5348260885	large
0.5347821145	approximate sampling
0.5346809298	error rates
0.5346245736	extensive
0.5345596535	least absolute
0.5344528375	sequential
0.5344433833	diagnostic
0.5344407213	boundaries
0.5344255802	contextual
0.5344255802	strings
0.5344255802	outlying
0.5344255802	maximin
0.5344255802	explaining
0.5343199476	state variables
0.5342446264	torus
0.5342446264	voters
0.5341547947	driven
0.5341250219	graph structure
0.5340502073	covariance parameters
0.5339792866	computational challenge
0.5339449746	u
0.5338507882	surface
0.5338450972	discretisation
0.5337355570	summarizing
0.5337355570	treating
0.5337355570	replication
0.5337355570	aware
0.5337302476	empirical application
0.5337193157	upper
0.5335034263	accurate approximations
0.5333840783	discussion
0.5333645203	randomized algorithms
0.5332806699	random
0.5332290761	based
0.5332128553	extraction
0.5332128553	remove
0.5331024826	particle
0.5330277923	variable
0.5329262948	incorporating
0.5329162492	recent
0.5328913504	collaborative
0.5328642793	likelihood
0.5328292177	bootstrapping
0.5327263630	advance
0.5326832480	normalizing
0.5326104806	tens
0.5325576484	hierarchical
0.5323701166	windows
0.5322278391	estimation
0.5321931915	longer
0.5321539331	face
0.5320549250	belong
0.5320056609	ratio tests
0.5318570991	flexible
0.5318176340	solution
0.5318156242	inla package
0.5317579360	families
0.5317475128	limits
0.5316474472	industrial
0.5316407093	numerical evidence
0.5315723644	comments
0.5314771300	lognormal
0.5314166064	generalizing
0.5313996844	interpreted
0.5312947431	sequential monte carlo algorithm
0.5310662170	characteristic
0.5310329112	resulting algorithms
0.5309394589	bridging
0.5308747386	neighborhood
0.5308600278	aforementioned
0.5307053561	surprisingly
0.5306335593	sampling technique
0.5305129852	performance
0.5302659335	physics
0.5302117135	closeness
0.5301631331	hastings algorithms
0.5300999832	pdf
0.5300136689	classical
0.5300093647	software
0.5299896687	r
0.5299150210	independent
0.5298963409	v
0.5298938885	intuitively
0.5297720545	taking
0.5297249613	problem specific
0.5296881511	nuisance
0.5296565241	perspectives
0.5295703691	black
0.5295469895	12
0.5294418889	extra
0.5294230989	estimator
0.5292643076	test cases
0.5292587098	streaming
0.5292478218	method of multipliers
0.5291639582	cox processes
0.5290845232	fly
0.5290751532	scale mixture
0.5290630646	augmented
0.5289586039	key idea
0.5288980956	detailed
0.5285863308	sparse
0.5285773736	inference
0.5285208767	minimization
0.5284879607	emerged
0.5284879607	indexed
0.5284717939	modified
0.5284628807	jump process
0.5284582657	theoretical
0.5284078789	stored
0.5283806541	verify
0.5283143167	maximum likelihood method
0.5282945342	econometric
0.5282531577	examples include
0.5280109336	trees
0.5277823800	distribution
0.5277307475	estimation and inference
0.5276133038	consequences
0.5275464419	area
0.5275413879	tests
0.5275066981	online
0.5274642398	statistical
0.5274291558	empirical studies
0.5272418947	integrate
0.5270512356	reproducing kernel
0.5269358300	processes
0.5269019664	borrowing
0.5269019664	ancestral
0.5269019664	groundwater
0.5269019664	compositions
0.5269019664	promoting
0.5269019664	marginally
0.5269019664	contact
0.5269019664	van
0.5267777318	vector
0.5267002142	functional time series
0.5266885524	group
0.5266171147	long time series
0.5265734464	coordinate
0.5264961125	clinical
0.5264762548	general framework
0.5264753258	latent
0.5264579125	shrinkage
0.5263491747	investigation
0.5263286221	probabilities
0.5262322700	11
0.5261914449	stopping
0.5260946437	interpolating
0.5260946437	manufacturing
0.5260946437	nonlocal
0.5260946437	housing
0.5260946437	enforcing
0.5260946437	entity
0.5260946437	embeddings
0.5260946437	lifted
0.5260946437	merging
0.5260946437	nesting
0.5260946437	pedigree
0.5260946437	copy
0.5260946437	orbit
0.5260946437	repulsive
0.5260946437	examining
0.5260946437	comment
0.5260849977	uncertainty
0.5260188207	boundary
0.5259944069	independent and identically
0.5259822141	error
0.5259001465	multiple try metropolis
0.5257755444	gait
0.5257755444	adjustments
0.5257337574	layers
0.5255866243	assigned
0.5254762734	interface
0.5254436142	bandwidth
0.5253978789	real examples
0.5253730041	non trivial
0.5253428859	large networks
0.5252840880	correcting
0.5252795228	density
0.5250944980	median
0.5250825236	trick
0.5250776183	design matrix
0.5250491176	stochastic model
0.5249908899	set
0.5249897134	significant computational
0.5249662376	change of measure
0.5248818214	determining
0.5248202712	learning problems
0.5248142556	history
0.5248077196	random sample
0.5247807581	simulations
0.5247341139	deterministic markov processes
0.5246719073	image
0.5246398133	nonparametric
0.5246179777	statistical framework
0.5245579845	merge
0.5245579213	log linear
0.5244931738	copula
0.5244715006	statistical problems
0.5244226133	selection
0.5243875856	science
0.5243594575	method called
0.5243265560	methods
0.5243251975	probabilistic
0.5242490873	codes
0.5241955283	finite samples
0.5241907605	sparse group
0.5241778927	accommodate
0.5241778927	phenomenon
0.5241608675	understood
0.5241137406	environmental
0.5240993782	dependent data
0.5240264018	uncertain
0.5239738621	activity
0.5239560257	resolution
0.5239256169	tree
0.5239018414	modelled
0.5238629826	integer
0.5238593330	species
0.5236220500	merits
0.5235562654	mcmc simulation
0.5234770619	efficient computational
0.5233600798	point estimation
0.5233184503	paper develops
0.5232247102	great
0.5231705991	date
0.5231313954	augmentation
0.5228486095	millions
0.5228052999	usage
0.5227787127	design
0.5226836982	bi
0.5226836982	fiducial
0.5226836982	pseudolikelihood
0.5226417931	adaptive markov chain monte
0.5225777108	active
0.5225173553	pooling
0.5225173553	encoding
0.5222241056	compatible
0.5222239846	additive model
0.5221961942	pre
0.5221790758	recent results
0.5220467958	computing
0.5219851127	control
0.5218541477	language
0.5217619552	seed
0.5217619552	varieties
0.5216863441	gradients
0.5216055368	local
0.5215953208	core
0.5215594183	applications
0.5214839568	spline
0.5214608039	deep
0.5214241056	manuscript
0.5213272218	uncertainty estimates
0.5212776963	additive
0.5211414233	normal inverse
0.5210131127	scalable
0.5209981793	kinetic models
0.5209683462	state and parameter
0.5209466605	impact
0.5209141897	tables
0.5208816138	random matrices
0.5208082371	except
0.5207453550	education
0.5207453550	sufficiency
0.5207453550	epidemics
0.5207453550	fluctuations
0.5206212799	convex
0.5205884785	pruning
0.5204717033	functionals
0.5202973608	student's t
0.5202416923	suffers
0.5202353898	single
0.5201390807	optimal sampling
0.5200725020	rich
0.5199190551	von
0.5199127203	breaking
0.5198375886	body
0.5196514299	product
0.5195995668	capability
0.5195592292	monte carlo algorithm
0.5194645554	place
0.5193686708	paper presents
0.5193534422	nature
0.5193119080	biology
0.5192509327	numerical simulation
0.5192157916	identification
0.5191647888	distance
0.5191454751	annealed
0.5191454751	scrambled
0.5191454751	marginalization
0.5190960537	risks
0.5190960537	alleviate
0.5190905287	deviation
0.5190884885	trial
0.5190746611	diffusion
0.5190325948	inversion
0.5189881437	chaos
0.5189325395	finite sample properties
0.5189086427	modeling
0.5188815956	pavement
0.5188815956	replica
0.5186907454	testing
0.5186785143	unimodal
0.5186462979	scaling
0.5185684155	specialized
0.5185684155	formal
0.5185606156	estimating
0.5183735099	filtered
0.5183735099	travel
0.5183735099	preconditioning
0.5183735099	alterations
0.5183735099	irreversible
0.5183735099	elegant
0.5183735099	damage
0.5182439360	similarity
0.5182177445	genetic
0.5181785983	usefulness
0.5181484560	environment
0.5180504525	library
0.5180476275	relabeling
0.5180476275	conversion
0.5180328087	ratings
0.5179777433	effects
0.5179378188	recovery
0.5178789825	gibbs
0.5176529528	energy
0.5176498581	fitting
0.5175580116	formulas
0.5174717137	normalising
0.5174525092	eigen
0.5174453672	introduction
0.5173582792	adapts
0.5172988451	gradient
0.5172344030	heterogeneity
0.5172205188	hierarchy
0.5170715045	experiments demonstrate
0.5170636966	target
0.5170163513	resulting estimators
0.5169902598	tractable
0.5168919443	filtering problem
0.5167821218	burn
0.5167821218	l_0
0.5167416546	propagation
0.5166958973	goes
0.5166954938	systems
0.5166843337	attempts
0.5166448052	reach
0.5165361628	count
0.5165037402	grip
0.5165037402	anomalous
0.5165037402	taxi
0.5165037402	drop
0.5165037402	ecosystem
0.5165037402	intraday
0.5165037402	acquired
0.5165037402	optimised
0.5165037402	nudging
0.5165037402	automation
0.5165037402	toric
0.5165037402	progressively
0.5165037402	emergence
0.5165037402	exponentiation
0.5165037402	automate
0.5165037402	taxa
0.5165037402	timing
0.5165037402	plausibility
0.5165037402	layout
0.5165037402	tomographic
0.5165037402	discretizing
0.5165037402	influential
0.5165037402	uncover
0.5165037402	coded
0.5165037402	customized
0.5165037402	distinguishing
0.5165037402	sketched
0.5165037402	things
0.5165037402	infinitesimal
0.5165037402	plate
0.5165037402	imaginary
0.5165037402	polytopes
0.5165037402	thresholded
0.5165037402	scratch
0.5165037402	violations
0.5165037402	insufficient
0.5165037402	evidences
0.5165037402	drivers
0.5165037402	eliminating
0.5164830238	d optimal designs
0.5164547727	times faster
0.5164244490	real world problems
0.5163995693	expected information
0.5163831200	respective
0.5162642957	programming
0.5161406581	incomplete
0.5160754185	representations
0.5160592025	development
0.5159203691	algorithmic
0.5158852497	converting
0.5158852497	epistemic
0.5158248200	discrete
0.5158033579	algorithms
0.5158027446	eventually
0.5157348704	fluxes
0.5155776065	enhance
0.5155475340	realizations
0.5154744933	incorporated
0.5154482442	c + +
0.5153116365	calibrating
0.5153116365	atmosphere
0.5153116365	delay
0.5153116365	branch
0.5153116365	parametrized
0.5152374685	oriented
0.5152214254	opposed
0.5151919796	optimization
0.5151336482	synthetic and real data
0.5151167180	spectral
0.5150311900	once
0.5150290955	methods rely
0.5149857835	computation
0.5148425632	notably
0.5148323356	dynamical
0.5147507545	languages
0.5146936106	kernel
0.5146669968	trends
0.5146179246	entropy
0.5146049682	extreme
0.5146043557	cross
0.5145044979	developing
0.5144688639	importantly
0.5143514698	water
0.5143514698	appears
0.5141706715	subgroup
0.5141706715	biomarker
0.5141706715	beginning
0.5141706715	visualisation
0.5141706715	determinants
0.5141706715	fix
0.5141706715	logarithm
0.5141706715	swapping
0.5141706715	discussions
0.5141706715	damped
0.5141706715	nets
0.5141706715	blind
0.5141706715	piece
0.5141706715	century
0.5140877330	implicit
0.5140215893	conjugate
0.5140078162	accurate
0.5139740826	problems
0.5139546527	existing
0.5139037114	throughput
0.5138761362	budget
0.5137599551	prevent
0.5136877645	variate
0.5136765546	prominent
0.5136765546	ignoring
0.5136184758	hypercube
0.5136158219	antithetic
0.5135038213	penalized
0.5134774468	growth
0.5134048850	object
0.5133620450	level
0.5133598149	information gain
0.5132667348	opinion
0.5131402282	topic
0.5129894227	expectation
0.5129071469	analyzers model
0.5128586569	accounting
0.5128400279	scalability
0.5127511757	unbiased
0.5125354366	spatially
0.5125271783	square
0.5124689298	linear combinations
0.5124338898	unit
0.5124311282	dependent
0.5123486478	confidence
0.5123004752	fast fourier
0.5122846485	augment
0.5122490894	root
0.5122389124	optimization techniques
0.5121144743	balance
0.5120957400	martingale
0.5120957400	contemporary
0.5120957400	dominant
0.5120957400	partitioned
0.5120957400	geostatistical
0.5120957400	circulant
0.5120957400	supremum
0.5120957400	detector
0.5120957400	enumeration
0.5120957400	heteroskedastic
0.5120957400	conveniently
0.5120957400	subjective
0.5120957400	land
0.5120957400	capital
0.5120733041	extreme value
0.5120688753	direct
0.5120498145	gaussian priors
0.5118792391	multifidelity
0.5117352969	network
0.5116536718	tempered
0.5116122025	tail
0.5115621987	compares
0.5115285498	perfect
0.5114288657	phase
0.5114094453	posterior approximations
0.5113396988	quantitative
0.5112854787	quantification of uncertainty
0.5112172500	definite
0.5110545145	vertices
0.5110158231	note
0.5109896962	eigenvalues
0.5109701779	statistical distributions
0.5109540095	proper
0.5109419040	observational
0.5108912909	spatial
0.5108607737	al
0.5108465553	slab
0.5108079922	simultaneous
0.5107384143	inverse
0.5107324676	success
0.5106287116	kinetic
0.5105314600	wrapped
0.5105314600	collapse
0.5105226081	principal
0.5105219928	computational models
0.5104873342	information matrix
0.5104839040	connection
0.5104201956	integrals
0.5104201903	operator
0.5103652963	distributed
0.5102898661	extended
0.5102511111	alpha
0.5102398850	parametric
0.5102083067	state
0.5100378236	acyclic
0.5098403437	microbial
0.5097374386	subset
0.5097352159	orders
0.5096597030	affected
0.5096515074	surely
0.5096515074	majority
0.5096288891	projected
0.5095509478	volume
0.5095308905	normal
0.5094876030	markov chain monte carlo method
0.5094752527	interpretability
0.5094527979	occupancy
0.5093612160	functional
0.5093472495	signal
0.5093388759	wish
0.5093107824	brain
0.5092963015	subsampling
0.5091841185	significance
0.5091161216	intensive
0.5090737376	geometric
0.5090622239	ball
0.5088774608	multiple
0.5087990973	normality
0.5087920042	treated
0.5086545599	solving
0.5086326965	illustrations
0.5084882184	experiments
0.5083626677	accelerating
0.5082778561	theory
0.5081872239	speeding
0.5081791312	logic
0.5081791312	expanding
0.5081791312	motivation
0.5079440722	algorithm achieves
0.5079321656	reasoning
0.5079321656	equivalently
0.5079321656	stratification
0.5079321656	centers
0.5079321656	policies
0.5079321656	bacterial
0.5079321656	markets
0.5079321656	strict
0.5079321656	secondary
0.5079321656	homogeneity
0.5079321656	revealing
0.5079321656	pooled
0.5078964494	ordinary
0.5078436632	coefficient
0.5078326490	conditioned
0.5078055471	mixtures
0.5077869499	posed
0.5077195738	wavelet
0.5077020256	derivatives
0.5076978636	supplementary
0.5075908949	parallelisation
0.5075908949	reproducibility
0.5075908949	mechanistic
0.5075649352	restricted
0.5073847190	subsequently
0.5073473493	message
0.5072861246	weighted
0.5072462510	linearly
0.5072029350	geodesic
0.5072018676	sketch
0.5072018676	strictly
0.5072018676	penalised
0.5072018676	repository
0.5071228496	instances
0.5071188230	hour
0.5070570611	factorization
0.5070426540	estimated parameters
0.5069367416	serves
0.5068955799	plus
0.5068773205	rejection
0.5068517431	simulation based inference
0.5067976292	conditional
0.5067716946	previous
0.5066440138	classification
0.5064969695	model simulations
0.5064726418	sampling techniques
0.5063219428	explanatory
0.5063143158	equations
0.5062873863	trade
0.5062768685	original data
0.5062199339	cubature
0.5061851178	critical
0.5061788657	future
0.5061068562	identically
0.5060674219	trimmed
0.5060259370	lot
0.5059945393	nonasymptotic
0.5059330546	application
0.5058580275	modification
0.5058502522	distributed data
0.5058105420	lies
0.5057203921	presence
0.5056947898	combining
0.5056514231	average
0.5055686481	expectation conditional
0.5052489917	trade off
0.5052004341	building
0.5051838498	data size
0.5050515237	robustly
0.5050515237	differently
0.5050515237	comparatively
0.5050515237	compiled
0.5050515237	seemingly
0.5050515237	parametrizations
0.5050515237	ferromagnetic
0.5050515237	outbreaks
0.5050515237	intense
0.5050515237	inspection
0.5050515237	business
0.5050515237	collecting
0.5050515237	prevalent
0.5050515237	standards
0.5050515237	spreading
0.5050515237	stations
0.5050515237	checks
0.5050515237	inverting
0.5050515237	multimodality
0.5050515237	foundations
0.5050515237	conditionals
0.5050515237	orthogonality
0.5050515237	occurrences
0.5050515237	tissues
0.5050515237	sketches
0.5050361304	order
0.5049529592	exponential
0.5049522632	prior
0.5048981248	controlled
0.5047965787	histogram
0.5047724542	extract
0.5047175563	likelihood inference
0.5046385639	convenient
0.5045611875	statistical performance
0.5045569674	savings
0.5045337944	detection
0.5044257631	theorem
0.5043056082	marginal
0.5042293042	censored
0.5041497133	accept
0.5041278902	stationary
0.5040995932	sparse polynomial chaos
0.5040774954	clustering method
0.5039947945	population
0.5039625295	adapt
0.5039188943	topological
0.5038958686	variational
0.5038467664	bioinformatics
0.5037633655	closely
0.5036892733	aims
0.5036824917	scan
0.5036674043	approximations
0.5035613445	user
0.5035333973	maps
0.5035199858	traditionally
0.5034907760	index
0.5034888509	hundreds
0.5033436142	pattern
0.5033158930	financial
0.5033018266	hold
0.5032760772	sparse linear
0.5031885076	graphs
0.5030774212	decision
0.5029625053	output
0.5029513358	mass
0.5028206306	mixed
0.5026626606	matrices
0.5026241745	actual
0.5025631205	long
0.5024245015	rule
0.5023846071	false
0.5023385317	problem at hand
0.5023019807	bad
0.5022379655	machine
0.5022062450	kriging
0.5021819465	reduction techniques
0.5021139502	cluster
0.5020690579	categorical
0.5019723774	nonlinear
0.5019631366	adding
0.5019369499	manual
0.5018970430	limitation
0.5018647708	reads
0.5018647708	positives
0.5018371119	super
0.5018276226	effect
0.5018033524	recurrent
0.5017505613	visualization
0.5015073490	association
0.5015036307	mixture
0.5014872258	regularity
0.5014624643	comparison
0.5014551954	safe
0.5013246882	multi
0.5013069743	observing
0.5012101693	consequence
0.5010808897	price
0.5009496071	rise
0.5008914619	nested
0.5007540289	testlet
0.5007540289	phenotypes
0.5007528340	tensors
0.5007528340	whilst
0.5006435555	primal
0.5006013006	normally distributed
0.5005210187	floating
0.5004965539	alignment
0.5003884005	continuation
0.5003512863	normalized
0.5002972372	vertical
0.5001717858	characteristics
0.5001538875	analyzing
0.5000225101	combined
0.4999640756	invariant
0.4999436670	block
0.4997465708	walk
0.4997369484	rare
0.4997322168	couplings
0.4996931018	continuous
0.4996615258	overlapping
0.4995809038	provide accurate
0.4995021317	carlo
0.4994252207	calculate
0.4993983644	theories
0.4993983644	assigning
0.4993983644	biologically
0.4993983644	adaptivity
0.4993983644	endpoint
0.4993983644	enhancement
0.4993983644	writing
0.4993983644	file
0.4993983644	ridges
0.4993983644	reciprocal
0.4993983644	lineage
0.4993983644	rectangular
0.4993983644	artifacts
0.4993983644	pandemic
0.4993983644	subsurface
0.4993983644	linearized
0.4993983644	uniqueness
0.4993983644	imprecise
0.4993983644	started
0.4993983644	noiseless
0.4993983644	interpreting
0.4993983644	explanation
0.4993983644	metamodeling
0.4993983644	host
0.4993983644	indicators
0.4993983644	experimentation
0.4993983644	signed
0.4993983644	partly
0.4993983644	separating
0.4993983644	recurrence
0.4993816665	singular value
0.4992074854	computational results
0.4991815469	builds
0.4990630722	simple to implement
0.4988489857	matching
0.4988487656	finding
0.4988370389	limit state
0.4988164613	minimizer
0.4987916367	minimal
0.4987755213	search
0.4987187990	computational performance
0.4986711240	deterministic
0.4986496230	proven
0.4986140313	metric
0.4985728700	computational problems
0.4985544874	additionally
0.4984876891	advances
0.4984412527	comprehensive simulation
0.4984002545	learning algorithms
0.4983412103	prediction
0.4982990669	practical
0.4982829334	function
0.4981714708	com
0.4981350935	estimators
0.4981333470	package
0.4981187499	reports
0.4981187499	rankings
0.4979331220	smooth
0.4979081876	smoothing
0.4977275596	projections
0.4976009909	simulating
0.4975964272	jump
0.4975756309	theoretically
0.4975647914	payoff
0.4975551905	large samples
0.4975312198	finally
0.4974098106	instance
0.4973987892	objective
0.4972002078	precise
0.4971727446	adopting
0.4971164002	removing
0.4971164002	mortality
0.4971164002	placement
0.4971164002	dictionary
0.4971164002	lifetime
0.4971164002	horizon
0.4971164002	frames
0.4971164002	hydrological
0.4971164002	transforming
0.4971164002	min
0.4971164002	orthonormal
0.4969823916	exploring
0.4967950188	baseline
0.4967766194	spatial statistics
0.4966919965	high
0.4966468760	model evidence
0.4966326281	auxiliary
0.4965804554	norm
0.4965478997	simplicity
0.4965166405	code
0.4965025272	governed
0.4964938487	regularized
0.4964504123	space
0.4964222007	truth
0.4963493967	replaced
0.4962770904	monte carlo samples
0.4962719396	interaction
0.4962716379	selecting
0.4961295988	event
0.4960824086	filter
0.4960755788	general state space
0.4960676338	reducing
0.4960085818	insight
0.4959896816	quadratic
0.4959116704	generate random
0.4958733999	chaos expansion
0.4958541625	superiority
0.4957983122	finite
0.4957087255	difference
0.4956685006	quality
0.4955979982	transition
0.4955923398	obtaining
0.4955808727	intrusive
0.4954132602	rates
0.4952480967	allocation
0.4952237519	toy
0.4952043575	rules
0.4951660962	independence
0.4951026260	local approximation
0.4950421964	dependence
0.4950376603	predictive
0.4949729122	common
0.4949261015	aim
0.4948389175	projection
0.4947859961	free
0.4947365169	units
0.4947253183	observed
0.4947221187	mcmc approaches
0.4946600518	sparse precision
0.4946185885	publicly
0.4945850357	dimension
0.4945810797	produced
0.4945754220	discrepancy
0.4945146823	structural
0.4945110711	led
0.4944898589	splitting
0.4942779938	link
0.4942344811	provable
0.4941952004	asymptotic
0.4941691474	formed
0.4941089433	design of experiments
0.4940563069	compound
0.4940481366	connectivity
0.4940386814	mild assumptions
0.4939856045	factor
0.4939588163	o
0.4939217092	products
0.4938406337	counting
0.4937288524	passing
0.4935335064	reconstruction
0.4934812287	predictor
0.4934537487	conclusions
0.4934422747	graphical
0.4933623124	proximal
0.4933551894	comparisons
0.4933036810	mixing
0.4932997563	ubiquitous
0.4931869818	abstract
0.4931810276	draw
0.4930408513	loss
0.4929217369	x_0
0.4928878201	evaluation
0.4928569244	goal
0.4928491205	machines
0.4928464179	perturbations
0.4927938020	ensemble mcmc
0.4927617115	aggregation
0.4925974209	central
0.4925756162	generic
0.4924945552	family
0.4924660276	project
0.4924629621	non reversible
0.4924519461	risk
0.4924352402	skew t
0.4922789243	iterate
0.4922035776	returns
0.4920857020	temperature
0.4920660598	polynomial
0.4920566516	network data
0.4920212113	range
0.4918990499	strong
0.4918515010	insights
0.4918374869	comparing
0.4918085061	world data
0.4917700227	preliminary
0.4917597888	approximation method
0.4917589655	unconstrained
0.4916782073	dual
0.4915743214	arrays
0.4915543898	deals
0.4914891309	volatility
0.4914761813	increasingly
0.4914027688	descriptions
0.4912224682	regularization
0.4912179129	averages
0.4911315544	big
0.4910812314	relation
0.4910626745	derivative
0.4910543021	fractional
0.4910058574	medium
0.4908106473	modern
0.4908087807	stable
0.4905450171	static
0.4905292627	perform bayesian inference
0.4904706614	community
0.4903815021	create
0.4901934968	interactive
0.4901389660	relationship
0.4901084971	low
0.4899896558	diagrams
0.4899896558	bins
0.4899896558	cattle
0.4899896558	interfaces
0.4899896558	centering
0.4899896558	randomised
0.4898679665	measurement
0.4898655627	correlations
0.4898587168	guarantees
0.4897431265	selection procedure
0.4896899299	hat
0.4895735626	chance
0.4895007435	bootstrap
0.4894942777	cite
0.4894206407	indices
0.4893102850	infinite
0.4892540814	logistic
0.4892413995	rank
0.4891728588	important role
0.4891640486	l
0.4890971303	likelihood approach
0.4890510410	curse
0.4890339650	past
0.4890197673	caused
0.4889263546	truncated
0.4888850181	asynchronous
0.4888464431	though
0.4888250704	negative
0.4888058625	reversible
0.4887998178	markov chain monte carlo algorithm
0.4886153887	binary
0.4884266889	key
0.4884086073	possibility
0.4883888909	homotopy
0.4883793522	importance
0.4883431441	proximity
0.4883431441	completed
0.4883431441	mutually
0.4883431441	marginalized
0.4883431441	initially
0.4882629837	large scale bayesian
0.4882421109	simulator
0.4882233101	routinely
0.4882026911	inference framework
0.4881346744	predict
0.4881283686	filters
0.4880369866	orientation
0.4880110900	emulators
0.4879923606	partial
0.4879906600	applying
0.4878936944	sparsity
0.4878547160	standard markov chain monte carlo
0.4878115505	impossible
0.4878059869	constraints
0.4877104073	existing techniques
0.4877058659	normally
0.4876600956	fmri
0.4876598937	role
0.4875825272	tracking
0.4875801858	collective
0.4875801858	similarities
0.4875801858	improper
0.4875801858	refine
0.4875801858	orbits
0.4875801858	thousand
0.4875801858	ongoing
0.4875801858	faced
0.4875801858	references
0.4875801858	summation
0.4875801858	irregularly
0.4875765240	summary
0.4875705358	variables
0.4874206428	number of iterations
0.4873722908	performing
0.4873533572	alternative
0.4873434953	short
0.4872547977	plot
0.4872547977	centered
0.4872459451	skewness
0.4872245205	favorably
0.4871913268	projecting
0.4871913268	heteroscedastic
0.4871913268	singularity
0.4871913268	restricting
0.4871913268	graphon
0.4871913268	practices
0.4871913268	discriminating
0.4871913268	origin
0.4871913268	misleading
0.4871913268	phylogenetics
0.4871913268	smoothly
0.4871913268	regenerative
0.4871913268	vanilla
0.4871913268	elementary
0.4871913268	sparsely
0.4871913268	insensitive
0.4871913268	cycles
0.4871913268	genealogical
0.4871913268	transient
0.4871913268	reconstructions
0.4871913268	competition
0.4871913268	notions
0.4871913268	preferences
0.4871913268	deconvolution
0.4871631761	maintaining
0.4871049459	ranging
0.4871049459	focusing
0.4870934881	evolution
0.4870760234	leading
0.4870674132	hidden
0.4870353281	y
0.4870086755	accounts
0.4867987985	bayesian deep
0.4867264305	develops
0.4865614493	frailty
0.4865614493	confounding
0.4865614493	loci
0.4865614493	increments
0.4865614493	p_i
0.4865479054	flow
0.4864688744	consistency and asymptotic
0.4863341155	mathematical
0.4863211983	maximization
0.4862874549	pair
0.4862603519	quantification
0.4861981941	examples illustrate
0.4861788455	examples including
0.4861467310	evaluating
0.4860966205	consistency
0.4860861858	discovery rate
0.4860371158	absence
0.4860371158	relying
0.4859118850	generation
0.4858898469	bounding
0.4857911635	sample based
0.4857631835	15
0.4857524162	correction
0.4857118887	sketching
0.4857118887	logit
0.4857068078	penalty
0.4856542415	weight
0.4856456423	open
0.4856168585	manifolds
0.4855769996	selection criteria
0.4855540604	updating
0.4855440570	engineering
0.4854536868	neural
0.4852846856	valued data
0.4852018959	degrees
0.4851801941	data dependent
0.4851723422	series data
0.4851606436	large scale data sets
0.4851048692	samplers
0.4850966205	treatment
0.4850738088	tend
0.4850718407	end
0.4850394873	method
0.4850108679	moment
0.4849860422	dynamics
0.4849570247	ordinal
0.4848664494	estimation problems
0.4848623355	corresponds
0.4848506450	paper shows
0.4848136893	run
0.4846535841	explicit
0.4846375517	distances
0.4846283979	scientists
0.4845490437	variants
0.4845426105	randomization
0.4845426105	site
0.4845426105	grids
0.4845426105	prices
0.4845426105	grouping
0.4845426105	epidemiological
0.4844953770	forecasting
0.4844800218	approximating
0.4844339294	divergence
0.4843899239	subsets
0.4843498421	leave one out
0.4843147574	processing
0.4842802848	region
0.4842734374	criterion
0.4842704288	anomalies
0.4842704288	road
0.4842704288	regret
0.4842704288	companion
0.4842704288	subsampled
0.4842704288	removal
0.4842704288	abrupt
0.4842704288	compromise
0.4842704288	expanded
0.4842704288	mutations
0.4842704288	benchmarking
0.4842704288	constructive
0.4842704288	handwritten
0.4842114727	forward
0.4841216283	priors
0.4840729545	extensions
0.4840241363	functionality
0.4840105988	multimodal
0.4838909434	weak
0.4838404058	circular
0.4838329903	validity
0.4837160694	interval
0.4836725892	carrying
0.4836725892	native
0.4836725892	topologies
0.4836725892	lacks
0.4836725892	concludes
0.4836725892	billion
0.4836725892	thermal
0.4836725892	compromising
0.4836725892	molecules
0.4836725892	discriminative
0.4836725892	customers
0.4836725892	granularities
0.4836725892	cryptocurrency
0.4836725892	batches
0.4836725892	unprecedented
0.4836725892	assist
0.4836725892	zones
0.4836725892	unnormalised
0.4836725892	expressive
0.4836725892	raises
0.4836725892	speeds
0.4836725892	exhibiting
0.4836725892	simplifies
0.4836725892	entry
0.4836725892	marked
0.4836725892	passes
0.4836725892	multicore
0.4836725892	simulates
0.4836725892	decomposes
0.4836725892	ingredients
0.4836725892	paramount
0.4836725892	modulated
0.4836725892	suboptimal
0.4836725892	augmenting
0.4836725892	modifies
0.4836725892	bandwidths
0.4836725892	severity
0.4836725892	spheres
0.4836725892	restrict
0.4836725892	statements
0.4836725892	renders
0.4836725892	multiplicity
0.4836725892	subgradient
0.4836725892	segmentations
0.4836725892	metamodels
0.4836725892	cumbersome
0.4836725892	decreased
0.4836725892	reproduction
0.4836725892	devoted
0.4836725892	neighbourhood
0.4836725892	phases
0.4836725892	regularizing
0.4836725892	optimizes
0.4836725892	magnitudes
0.4836725892	beliefs
0.4836725892	uniquely
0.4836725892	reality
0.4836725892	unity
0.4836725892	complemented
0.4836725892	appeal
0.4836725892	immediately
0.4836725892	straight
0.4836725892	psychological
0.4836725892	merlin
0.4836725892	imputed
0.4836725892	deviates
0.4836725892	confronted
0.4836725892	parametrically
0.4836725892	advantageous
0.4836725892	repositories
0.4836725892	entities
0.4836725892	substitution
0.4836725892	heteroscedasticity
0.4836725892	sparser
0.4836725892	constrain
0.4836725892	satellites
0.4836725892	latest
0.4836725892	stocks
0.4836725892	contraction
0.4836725892	resampled
0.4836725892	returned
0.4836725892	hindered
0.4836725892	documents
0.4836725892	sacrifice
0.4836725892	definitions
0.4836725892	merit
0.4836725892	hypersphere
0.4836725892	mitigation
0.4836725892	indexes
0.4836725892	lesser
0.4836725892	neighboring
0.4836725892	replaces
0.4836725892	denoted
0.4836725892	hampered
0.4836725892	temporally
0.4836725892	complements
0.4836725892	infinitely
0.4836725892	benchmarked
0.4836725892	treed
0.4836725892	permanent
0.4836725892	machinery
0.4836725892	seminal
0.4835691758	width
0.4835107573	real dataset
0.4834763657	specification
0.4834306019	sample covariance matrix
0.4833290979	capabilities
0.4833224321	basic
0.4832279944	frequency
0.4831552062	basis
0.4831528501	offline
0.4831027908	integration
0.4830848200	feature
0.4830085978	thinning
0.4828456352	fully
0.4825544851	carlo estimators
0.4825371705	tackle
0.4824299231	decomposition
0.4824109031	simulations and real data
0.4823763453	focused
0.4823615503	computational algorithms
0.4823463229	modelling
0.4822872213	adjustment
0.4822561600	estimation and model
0.4822037830	computer science
0.4821673746	reduced
0.4821371045	prevalence
0.4821371045	discontinuities
0.4821371045	parsimony
0.4821371045	isotropic
0.4821289825	researchers
0.4820575170	changepoint
0.4819195956	amenable
0.4819114667	stochastic block
0.4818860843	sufficient
0.4817752585	concerned
0.4817721231	optimization method
0.4817494926	non linear state space
0.4815481693	designs
0.4815309488	undirected
0.4814742013	generate samples
0.4812649145	fixed
0.4811885021	positive
0.4811204029	exponent
0.4811010262	computer simulators
0.4810785243	complete
0.4810336887	nonsmooth
0.4809691542	faster
0.4809026412	necessarily
0.4808872187	warranty
0.4808872187	warping
0.4808872187	depths
0.4808485179	irregular
0.4807983231	efficient bayesian
0.4807521540	closed
0.4807466963	complex
0.4806978892	approximate marginal
0.4806325265	concave
0.4805083909	uniform
0.4805061058	computations
0.4804330865	expected
0.4804253214	aspects
0.4804060724	manifold
0.4803181687	understand
0.4802422748	formally
0.4802422748	angle
0.4802422748	nonlinearity
0.4802422748	ensuring
0.4802422748	exchangeable
0.4802422748	age
0.4802422748	successive
0.4802422748	queueing
0.4801331299	length
0.4801308390	rate
0.4800718625	worst
0.4799547488	bound
0.4797440370	half
0.4797440370	qualitative
0.4797440370	seasonal
0.4797359590	spaces
0.4796943212	large problems
0.4796822146	numerical method
0.4796550881	inference schemes
0.4796204660	outperforms existing
0.4794693794	transport
0.4793866669	traditional
0.4792541068	get
0.4792053141	carlo simulation
0.4792020460	perspective
0.4791983113	horizontal
0.4790808745	likelihoods
0.4790770739	depth
0.4790539788	paper introduces
0.4790441179	special
0.4790226875	embarrassingly
0.4788874843	former
0.4788701312	last
0.4788166896	high dimensional setting
0.4788014668	latent dirichlet
0.4786576356	squares
0.4785992897	auto
0.4785686742	under mild assumptions
0.4784438690	characterized
0.4784214000	limit
0.4783800928	ratio
0.4782660665	unknown
0.4781694731	hypothesis
0.4779302838	iteration
0.4778584378	based algorithms
0.4777834065	massive
0.4777192115	ease
0.4776941709	absolute
0.4776745539	calibration
0.4776697302	calculation
0.4776135235	reliability
0.4775612784	pairs
0.4775288773	reference
0.4773692741	tuning
0.4773688249	typical
0.4772784167	constructing
0.4771856388	survival
0.4771396775	reparametrization
0.4770302642	mcmc techniques
0.4769548182	efficiently sample
0.4768975371	fundamental
0.4768727262	potentials
0.4768620094	input
0.4768114850	forecasts
0.4767448537	transformation
0.4767422188	satisfy
0.4767336388	source
0.4767173817	fails
0.4766619646	imbalanced
0.4766619646	discrimination
0.4766552210	form
0.4765156910	transform
0.4763910021	large scale data
0.4763745657	claims
0.4763716757	fraction
0.4763611459	overlap
0.4762911404	reparameterization
0.4761828679	computational approach
0.4761476894	reduction
0.4761368504	benefits
0.4761070470	carry
0.4761070470	clear
0.4760827398	problem
0.4760105940	generating
0.4760060617	diverse
0.4759767947	noise
0.4759196802	sciences
0.4758941469	means
0.4758350245	meanwhile
0.4757318320	c
0.4756881115	temporal
0.4756725208	high dimensional applications
0.4756410356	inference method
0.4755949187	tails
0.4755539100	surrogate
0.4753657771	noisy
0.4753429772	bayesian estimation
0.4753423370	suffer
0.4752743695	high dimensional regression
0.4752514943	placed
0.4751887476	measures
0.4751290824	quick
0.4749893887	essential
0.4749119283	excellent
0.4749016272	construction
0.4748341625	minimum
0.4748279960	voxel
0.4747247077	path
0.4745483442	cubic
0.4744998757	inspired
0.4744468395	linear non gaussian
0.4743706426	holds
0.4743696381	changing
0.4743696381	arrival
0.4743696381	computable
0.4743523002	stability
0.4743086754	interactions
0.4742177906	convex loss
0.4741011616	creating
0.4741011616	monotonicity
0.4739518666	standard approaches
0.4738802390	expansions
0.4737249061	iii
0.4737144583	retained
0.4735764509	bivariate
0.4735308022	converges
0.4733986843	subspace
0.4733094949	pathways
0.4732716926	elliptical
0.4732479532	averaging
0.4730960026	series
0.4730953961	sound
0.4730069115	framework
0.4729419066	trivial
0.4729360352	valid
0.4728548642	scaled
0.4728380814	freedom
0.4726722714	constants
0.4726275774	maximal
0.4726162901	performances
0.4725689649	classes
0.4724084321	gaps
0.4724084321	dynamically
0.4724016145	delta
0.4723127263	unlike
0.4721515480	direction
0.4721506629	q
0.4721186780	exploited
0.4721033718	allowed
0.4720266032	expansion
0.4719756196	r inla package
0.4719635427	sets
0.4719425804	size
0.4719400039	review
0.4718752912	epidemiology
0.4718752912	conducting
0.4718752912	subsample
0.4716629654	rounding
0.4716327073	failure
0.4715612725	knot
0.4715509692	non intrusive
0.4715252326	monotone
0.4714945410	empirically
0.4714930560	sqrt
0.4714317866	pre specified
0.4713821517	removed
0.4713821517	pathway
0.4713219843	previously
0.4711503415	program
0.4711482770	advanced
0.4710610686	adjusted langevin
0.4710508445	learn
0.4709241294	statistic
0.4709076031	squared
0.4708006612	speedups
0.4708006612	barrier
0.4708006612	parallelizable
0.4708006612	biomedical
0.4707301143	realized
0.4705756719	j
0.4705520536	window
0.4705316560	robustness
0.4703896633	g
0.4703707647	model space
0.4702909332	functional principal
0.4702627493	efficacy
0.4702086965	worse
0.4700918904	i
0.4700459907	sequence
0.4699242407	multiple try
0.4698934041	smoothed
0.4698934041	bases
0.4698425591	referred
0.4697259498	continuously
0.4697259498	spatiotemporal
0.4696733109	description
0.4696232201	position
0.4695558461	n
0.4694057602	adapting
0.4694057602	designing
0.4693889232	establishing
0.4691583540	draws
0.4690763118	symmetric
0.4690724056	cut
0.4690724056	duality
0.4690724056	discontinuous
0.4690646243	functions
0.4690589148	making
0.4690072402	assuming
0.4689906339	condition
0.4689706151	improved
0.4688518741	controlling
0.4688518741	objectives
0.4688425591	interested
0.4688142495	valued
0.4687128624	lists
0.4687128624	reconstructing
0.4687128624	noises
0.4687128624	reasons
0.4687128624	extensible
0.4687128624	anisotropic
0.4687128624	jumping
0.4687128624	toolkit
0.4687128624	movement
0.4687128624	agnostic
0.4687128624	inexact
0.4687128624	innovative
0.4686767303	occur
0.4686411328	embedding
0.4684473019	efficiency
0.4683000014	exhaustive
0.4683000014	blocking
0.4683000014	conjugacy
0.4683000014	investigating
0.4682451562	based models
0.4682058771	modern statistical
0.4680729763	topics
0.4680729763	ranked
0.4680729763	targeting
0.4680729763	tight
0.4680729763	benchmarks
0.4680729763	mathematically
0.4680729763	estimations
0.4679634893	cyclic
0.4679634893	monotonic
0.4678108522	m
0.4677862664	high computational
0.4677475281	naive
0.4676772439	bits
0.4676639700	simulated
0.4675701124	asymptotically
0.4675647385	computational model
0.4674952975	univariate
0.4674765529	solutions
0.4674652782	consisting
0.4674539556	constrained
0.4674533777	social
0.4674225384	covariances
0.4674124188	divergences
0.4672391641	outliers
0.4671943689	neurons
0.4671943689	rarely
0.4671943689	averaged
0.4671878206	log
0.4671594825	shapes
0.4670060598	stepwise
0.4668801143	generators
0.4668542803	split
0.4668195601	estimate
0.4667524621	skewed
0.4667524621	classifier
0.4667506985	jump mcmc
0.4667303571	determined
0.4666194301	densities
0.4665613776	become increasingly popular
0.4665203318	contours
0.4665203318	replacement
0.4665203318	metamodel
0.4665012300	pcn
0.4663967065	smoothers
0.4663358816	supported
0.4662920763	branching
0.4662300466	x
0.4662218778	outbreak
0.4662218778	amplitude
0.4661697440	synthetic
0.4660552114	generalized polynomial
0.4660321750	clustering algorithm
0.4660237723	margins
0.4659324225	e
0.4658574981	third
0.4658309032	pseudo
0.4657562786	b
0.4656547730	training
0.4655409294	largest
0.4654077391	targeted
0.4652206913	characterizing
0.4652146232	model structure
0.4652103836	location
0.4652070299	samples
0.4651059985	parallelization
0.4650387486	format
0.4649982243	scientific
0.4648964332	degree
0.4648742627	ecological
0.4648742627	transforms
0.4648646540	descent algorithms
0.4648491169	high fidelity model
0.4647766375	experimental
0.4646935477	high dimensional gaussian
0.4646822257	benefit
0.4646460752	architectures
0.4645905597	exploitation
0.4644689476	ideal
0.4644490752	equation models
0.4643153349	recovered
0.4643153349	addressing
0.4643146615	reveal
0.4642681609	serious
0.4641570532	datasets
0.4641509410	users
0.4639094543	residual
0.4635790446	self
0.4633781759	world
0.4633155135	efficient bayesian inference
0.4631579879	proposal
0.4631355458	next
0.4629533796	nonnegative
0.4629398325	penalties
0.4629372363	improvement
0.4629258565	margin
0.4628821198	challenge
0.4628791136	proportions
0.4628791136	membership
0.4628673498	utilize
0.4627991653	bounds
0.4627381240	practically
0.4624815694	first
0.4624374900	unfortunately
0.4624037949	external
0.4623385611	infer
0.4621790855	equality
0.4621564698	essentially
0.4621173535	utilized
0.4620424490	iterated
0.4619623840	null
0.4619571964	selection procedures
0.4619496006	unbounded
0.4618940325	human
0.4618859999	nonstationary
0.4618410865	aggregated
0.4618399644	genetics
0.4616231687	descent
0.4616097563	large scale problems
0.4615805557	ever increasing
0.4615084825	consistent
0.4608990508	fast algorithm
0.4608572830	findings
0.4607064599	choices
0.4607064599	prohibitive
0.4606389844	infty
0.4604871966	concave densities
0.4603104357	mean shift
0.4602568346	sensitive
0.4602211172	grouped
0.4602073414	precision
0.4600296063	number of particles
0.4600083523	doing
0.4600005451	inequality
0.4599920685	fields
0.4599070808	communities
0.4598379821	complexity
0.4598220648	optimality
0.4597692340	data generation
0.4597518009	seek
0.4595853129	shape
0.4593037723	viewpoint
0.4593037723	pointwise
0.4593037723	modifying
0.4593037723	plausible
0.4593037723	frequent
0.4593037723	maxima
0.4593037723	adequate
0.4591480284	contaminated
0.4591189533	grid
0.4590416605	dispersion
0.4589607092	k
0.4589265341	structural equation
0.4588289391	consuming
0.4587826616	potential
0.4584936575	correlated
0.4583682999	patterns
0.4583540267	paper
0.4582642642	versions
0.4581729956	representation
0.4580433180	clustered
0.4580429824	replicates
0.4580351128	ability
0.4580328126	applies
0.4579770450	schemes
0.4579660108	regular
0.4579583278	copulas
0.4577881873	subgroups
0.4577215931	infected
0.4576281428	heterogeneous
0.4576009207	accelerate
0.4575536715	generator
0.4573054715	version
0.4572872861	technology
0.4572134314	non linearities
0.4571580033	sampling procedure
0.4570902363	integral
0.4570731138	mean square
0.4569928275	reproducible
0.4569928275	remarkable
0.4569159823	separable
0.4568672545	h
0.4567889825	correlated data
0.4565962164	property
0.4565237347	freely
0.4564237108	viewed
0.4563975777	meteorological
0.4563726710	change
0.4561659178	assumed
0.4561432061	tools
0.4561363677	f
0.4560397187	simulation method
0.4560256993	extremal
0.4560256993	intervention
0.4560256993	spaced
0.4560256993	laws
0.4560256993	discretizations
0.4560256993	assets
0.4558669883	structured
0.4558071999	capable
0.4557887598	nonlinear models
0.4557094931	points
0.4556451190	rewards
0.4556451190	characterised
0.4556451190	worker
0.4556451190	crossing
0.4556451190	expand
0.4556451190	optimising
0.4556451190	timely
0.4556451190	worked
0.4556451190	documented
0.4556451190	waves
0.4556451190	competitor
0.4556451190	dispersed
0.4556451190	matched
0.4556451190	convenience
0.4556451190	cheaper
0.4556451190	concentrations
0.4556451190	affecting
0.4556451190	attracted
0.4556451190	vastly
0.4556451190	formats
0.4556451190	diverge
0.4556451190	highlighted
0.4556451190	elaborate
0.4556451190	misclassification
0.4556451190	eliminate
0.4556451190	continues
0.4556451190	autocorrelations
0.4556451190	persistence
0.4556451190	leveraged
0.4556451190	executed
0.4556451190	tedious
0.4556451190	physically
0.4556451190	opinions
0.4556451190	retains
0.4556451190	conjectured
0.4556451190	achievable
0.4556451190	complexities
0.4556451190	seasonality
0.4556451190	incorrect
0.4556451190	disadvantages
0.4556451190	necessitates
0.4556451190	constitute
0.4556451190	poly
0.4556451190	comprise
0.4556451190	exhibited
0.4556451190	exposure
0.4556451190	dominate
0.4556451190	discussing
0.4556451190	straightforwardly
0.4556451190	subclass
0.4556451190	inconsistent
0.4556451190	bin
0.4556451190	justify
0.4556451190	tackled
0.4556451190	render
0.4556451190	versatility
0.4556451190	acts
0.4556451190	generalisation
0.4556451190	ingredient
0.4556451190	corollary
0.4556451190	laptop
0.4556451190	concentrate
0.4556451190	behaves
0.4556451190	exactness
0.4556451190	detections
0.4556451190	compartmental
0.4556451190	specifies
0.4556451190	refined
0.4556451190	fairly
0.4556451190	confirmed
0.4556451190	initialized
0.4556451190	modest
0.4556451190	unexpected
0.4556451190	algorithm's
0.4556451190	generalises
0.4556451190	optimise
0.4556451190	indicating
0.4556451190	concavity
0.4556451190	slight
0.4556451190	unsuitable
0.4556451190	reflect
0.4556451190	highlights
0.4556451190	alternate
0.4556451190	minimise
0.4556451190	neuronal
0.4556451190	neglected
0.4556451190	actions
0.4556451190	axis
0.4555881225	p
0.4555422334	hence
0.4554611781	parameter selection
0.4553887601	mapping
0.4553691337	field
0.4553360261	spatio
0.4552825044	factors
0.4552056692	reported
0.4552043457	analytical
0.4551098510	ranking
0.4550718901	block model
0.4550025095	drawn
0.4549165548	time consuming
0.4547915662	crucial
0.4546452211	penalization
0.4545153310	s
0.4544212018	observations
0.4543974855	partitioning
0.4543375949	second order
0.4542690737	biasing
0.4542690737	modular
0.4542690737	demographic
0.4542690737	evolve
0.4542690737	exchangeability
0.4542690737	loading
0.4542690737	conceptually
0.4542690737	device
0.4542690737	pure
0.4542690737	keeping
0.4542690737	break
0.4542690737	impacts
0.4542350119	barycenter
0.4542350119	displays
0.4542350119	concrete
0.4542350119	correctness
0.4542350119	dramatic
0.4542350119	realization
0.4542350119	disturbances
0.4542350119	reformulation
0.4542350119	missingness
0.4542350119	geometrical
0.4542350119	driving
0.4542350119	knots
0.4542350119	unbiasedness
0.4542350119	intuition
0.4542350119	searches
0.4542350119	discovering
0.4542335608	consensus monte
0.4541855212	capture
0.4541596643	considering
0.4540140848	supporting
0.4540140848	attributes
0.4539951944	bias
0.4538968711	difficulty
0.4538292347	overall
0.4537634791	small
0.4536744973	dirichlet allocation
0.4536605981	target posterior
0.4536436864	number
0.4536186079	algorithm for computing
0.4535762409	look
0.4535627868	diffusions
0.4534972764	boxes
0.4534144471	privacy
0.4531190538	reduction method
0.4530941162	focuses
0.4530843187	background
0.4530562505	moments
0.4528949206	identifiability
0.4528675313	tail probabilities
0.4528440455	represented
0.4528264679	resources
0.4526917881	censoring
0.4526573576	response
0.4524601505	part
0.4523254898	posteriori
0.4522890144	sparse covariance
0.4521693982	identical
0.4521693982	econometrics
0.4520757341	metropolis
0.4519456103	0,1
0.4518949206	earlier
0.4518611784	estimation techniques
0.4518537396	formulated
0.4517772176	restriction
0.4517772176	actors
0.4517772176	minor
0.4515882554	modifications
0.4514412210	envelope
0.4514412210	unrealistic
0.4514412210	uncorrelated
0.4513812169	priori
0.4511594464	similar
0.4511295022	equation
0.4509921500	sensitivity
0.4509517922	default
0.4509109765	500
0.4509067429	proof
0.4508893071	intensity
0.4507107122	principled
0.4506936146	improving
0.4506662108	expressed
0.4506645559	point
0.4506439085	w
0.4506367333	instead
0.4506046265	time varying
0.4504590364	just
0.4502156807	sensing
0.4501874186	inference algorithms
0.4501212962	away
0.4500532019	leapfrog
0.4500514649	dealing
0.4500514120	per iteration
0.4500003356	attempt
0.4499789466	study
0.4499030190	studies
0.4498509254	collection
0.4497309437	efficient algorithms
0.4493573150	subspaces
0.4492194878	takes advantage of
0.4490985694	conclude
0.4490178284	time series
0.4489239652	here
0.4489054041	infinity
0.4488715684	additional
0.4488554558	contaminant
0.4488554558	numeric
0.4488554558	replicate
0.4488554558	ggrandomforests
0.4488554558	macroeconomic
0.4488554558	encoder
0.4488554558	courses
0.4488554558	healthcare
0.4488554558	monitor
0.4488554558	resultant
0.4488554558	precipitation
0.4488554558	possibilities
0.4488554558	detects
0.4488554558	interact
0.4488554558	retain
0.4488554558	shortcomings
0.4488554558	inappropriate
0.4488554558	breakdown
0.4488554558	binning
0.4488554558	setups
0.4488554558	storing
0.4488554558	permit
0.4488554558	simplify
0.4488554558	bands
0.4488554558	referenced
0.4488554558	concentrates
0.4488554558	opportunity
0.4488554558	specially
0.4488554558	drawbacks
0.4488554558	behavioral
0.4488554558	parallelism
0.4488554558	astrophysics
0.4488554558	constitutes
0.4488554558	evolves
0.4488554558	creates
0.4488554558	subpopulations
0.4488554558	favor
0.4488554558	shares
0.4488554558	elliptically
0.4488554558	relax
0.4488554558	dominates
0.4488554558	imposes
0.4488554558	pay
0.4488554558	presentation
0.4488554558	behave
0.4488554558	offered
0.4488554558	stated
0.4488554558	reconstructed
0.4488554558	exemplified
0.4488554558	relating
0.4488554558	localized
0.4488554558	alignments
0.4487836616	smoothness
0.4486847285	parallelized
0.4486847285	materials
0.4486847285	drastically
0.4486847285	enhanced
0.4486847285	recursion
0.4486847285	argument
0.4486426646	optimized
0.4486057290	notion
0.4485836629	chain monte carlo methods
0.4485834028	real and synthetic data
0.4481826420	view
0.4481184582	important class
0.4480849918	case
0.4479723256	practice
0.4479532151	surrogates
0.4479532151	grow
0.4479532151	experimentally
0.4479532151	imposing
0.4477885361	threshold
0.4477632597	d
0.4477168700	challenges
0.4476867793	continuous time
0.4475108700	tool
0.4472611967	real
0.4472201673	optimizer
0.4471162505	ensure
0.4471019960	real data set
0.4469197723	subgraphs
0.4469197723	minimizers
0.4469113967	independent component
0.4467899958	penalized maximum
0.4467538885	arbitrary
0.4467477965	kernels
0.4467301998	art
0.4466953164	evidence
0.4466742124	flows
0.4465298620	carried
0.4464758321	trend
0.4464484331	taking advantage
0.4464264237	regime
0.4462900240	tailed
0.4462777518	setting
0.4462363978	interventions
0.4462363978	coalescent
0.4462363978	highest
0.4462363978	spectra
0.4462363978	lengths
0.4462363978	tradeoff
0.4461170354	besides
0.4460851351	trait
0.4460851023	nested monte
0.4460276705	as
0.4459480121	databases
0.4457690132	final
0.4457635759	parameters
0.4457630302	tolerance
0.4457358648	generally
0.4455505687	thereof
0.4455197538	measure
0.4453955798	generative
0.4452867924	form expression
0.4452249132	http
0.4451698303	explain
0.4451630936	benchmark
0.4451252921	online parameter
0.4449743706	unrestricted
0.4449663761	an
0.4449480471	gradually
0.4449480471	reviews
0.4449480471	processor
0.4449480471	reweighting
0.4449480471	genomics
0.4449480471	historical
0.4449480471	covers
0.4446642464	walking
0.4446086251	discretized
0.4445196510	by
0.4444441309	adapted
0.4444345003	purpose
0.4444043992	synthesis
0.4444043992	scatter
0.4444043992	coherence
0.4444043992	conservative
0.4443878538	computer experiments
0.4443874744	one sided
0.4443730878	weaker
0.4443730878	cardinality
0.4443459321	going
0.4443354797	rely
0.4442443166	violation
0.4442195385	coreset
0.4442195385	mix
0.4442195385	losses
0.4442195385	relations
0.4442195385	randomness
0.4440969653	under mild conditions
0.4440704972	20
0.4440479907	combinations
0.4438638745	constraint
0.4438317105	support
0.4437114513	simply
0.4435338361	knowledge
0.4435080144	wide range of
0.4434315718	included
0.4433625976	groups
0.4432755555	did
0.4432755555	his
0.4432606549	depending
0.4432195385	aid
0.4431905632	chains
0.4431782034	report
0.4431504105	in
0.4431085031	accordingly
0.4428228481	trajectory
0.4428046471	old
0.4427639664	most
0.4427403028	mild
0.4425796112	consists
0.4424306821	r package
0.4423691723	provided to illustrate
0.4423668715	conquer
0.4423506174	singular
0.4422380871	formulations
0.4422279197	real and simulated data
0.4422214649	classifiers
0.4421983034	thus
0.4418535690	broad
0.4417836875	turn
0.4417135344	10 ^ 5
0.4416295749	for
0.4415916652	epsilon
0.4415841210	regressions
0.4413911714	dimensions
0.4413572459	more
0.4413383946	storage
0.4413218990	competing
0.4412452324	drift
0.4411619114	values
0.4411335668	runs
0.4410800115	recover
0.4410292983	chaotic
0.4409608992	entire
0.4406849669	sharp
0.4405388258	monthly
0.4405388258	pipeline
0.4405388258	analysts
0.4405388258	persistent
0.4405388258	_2
0.4405388258	articles
0.4404857107	second
0.4404685569	conclusion
0.4404685569	words
0.4404685569	sharing
0.4404685569	guidance
0.4404685569	capturing
0.4403528958	markov chain monte carlo sampling
0.4401961629	outer
0.4401961629	expert
0.4401961629	release
0.4401961629	excursion
0.4401961629	originally
0.4401961629	innovations
0.4401961629	decades
0.4401961629	shaped
0.4401961629	obvious
0.4400221674	on
0.4400077216	induced
0.4399508314	variances
0.4399454415	minimize
0.4398429482	forecast
0.4398234868	currently
0.4396834962	a
0.4395844649	tailored
0.4395371473	early
0.4394922086	time
0.4394713481	higher
0.4394139571	draw samples from
0.4393415549	non parametric
0.4393243122	difficulties
0.4393017304	smoother
0.4392376530	respect
0.4391514379	variety
0.4391360693	times
0.4390106321	theta
0.4388715900	very large datasets
0.4386555949	constant
0.4385949947	secondly
0.4385875144	new
0.4385794685	metropolis within gibbs
0.4385137771	quantity
0.4384561354	filtering algorithms
0.4384338651	friendly
0.4384227491	nevertheless
0.4384102897	et al
0.4382821160	live
0.4379899670	variation distance
0.4379361981	learners
0.4378407582	important
0.4377375960	following
0.4377354609	paths
0.4376917211	non negative
0.4376094034	levels
0.4375611783	powerful tool
0.4374269441	combination
0.4373566018	non gaussian
0.4372736720	implementation
0.4372508932	normal factor
0.4371792464	if
0.4371173266	taking advantage of
0.4370981820	nonparametric estimation
0.4370608674	loss of accuracy
0.4370128857	proposed
0.4369268960	t
0.4368573244	predictions
0.4368325127	eigenfunctions
0.4368325127	movements
0.4368325127	loadings
0.4368325127	filling
0.4368325127	identifiable
0.4368325127	era
0.4367098340	minimax
0.4366536609	massively
0.4365539522	usual
0.4365184063	while
0.4365072750	lag
0.4365072750	representative
0.4364167180	brief
0.4362722046	sources
0.4362419071	eigenvalue
0.4359517517	then
0.4358928776	divide
0.4358820257	desirable
0.4357182250	costs
0.4355988050	multinomial
0.4353869634	encompassing
0.4353869634	induces
0.4353869634	struggle
0.4353869634	custom
0.4353869634	impose
0.4353869634	inherently
0.4353869634	continuum
0.4353869634	unbiasedly
0.4353869634	circumvents
0.4353869634	warm
0.4353869634	regressors
0.4353869634	unnecessary
0.4353869634	unnormalized
0.4353869634	days
0.4353869634	decompose
0.4353869634	encourage
0.4353869634	plotting
0.4353869634	functionalities
0.4353869634	collect
0.4353869634	notable
0.4353869634	preserved
0.4353869634	learns
0.4353869634	status
0.4353869634	devised
0.4353869634	preserves
0.4353869634	assign
0.4353869634	evy
0.4353869634	recommended
0.4353869634	maintains
0.4353869634	decays
0.4353869634	analogue
0.4353869634	notoriously
0.4353869634	observables
0.4353869634	leaves
0.4353869634	revealed
0.4353869634	highlighting
0.4353869634	accomplished
0.4353869634	reactions
0.4353869634	banded
0.4353869634	positions
0.4353869634	multiplications
0.4353869634	formalism
0.4353869634	investigations
0.4353869634	exceed
0.4353869634	changed
0.4353869634	located
0.4353869634	exceeds
0.4352639854	memory
0.4352469492	this
0.4350616499	non
0.4349716542	limitations
0.4347603493	properly
0.4347603493	links
0.4344810027	flat
0.4342444641	monte carlo schemes
0.4341229008	unavailable
0.4340312462	locally
0.4339999070	ever
0.4336663259	little attention
0.4336007861	assessed
0.4334021539	discrete data
0.4333178857	deal
0.4333178857	arising
0.4332264223	fact
0.4326455309	dimensional
0.4326295077	promising
0.4326295077	influence
0.4324450706	events
0.4324130162	residuals
0.4323220976	contributions
0.4322091543	relationships
0.4317848994	treatments
0.4317848994	motivate
0.4317848994	behaviors
0.4317848994	trip
0.4317848994	activation
0.4317848994	failures
0.4317848994	ranges
0.4317848994	microbiome
0.4317848994	visualize
0.4317848994	comprises
0.4317848994	discarded
0.4317848994	recordings
0.4317848994	sought
0.4317848994	exemplify
0.4317848994	checked
0.4317848994	ready
0.4317848994	discovered
0.4317848994	implying
0.4317848994	sort
0.4317848994	zeros
0.4317848994	intra
0.4317848994	10,000
0.4317848994	diffuse
0.4317848994	lacking
0.4317848994	examines
0.4317848994	monotonically
0.4317848994	occurring
0.4317848994	dedicated
0.4317848994	nice
0.4317848994	dominated
0.4317848994	proceed
0.4317848994	remained
0.4317848994	express
0.4317848994	tissue
0.4317848994	favourably
0.4317848994	eliminates
0.4317848994	differing
0.4317848994	histories
0.4317848994	spirit
0.4317848994	resolved
0.4317848994	prone
0.4317848994	expertise
0.4317848994	virtually
0.4317848994	areal
0.4317848994	enormous
0.4317848994	recursions
0.4317848994	preferable
0.4317350904	properties
0.4316478054	model estimation
0.4313621408	depend
0.4313491560	six
0.4313422287	errors
0.4312678135	know
0.4312538118	achieving
0.4312538118	changepoints
0.4312468158	such
0.4312276065	greater
0.4311433007	paradigm
0.4309970056	genomic
0.4307675243	dimensionality
0.4307253117	comparable
0.4306342545	labels
0.4306219245	path following
0.4306009004	reasonable
0.4305652255	the
0.4305480060	abundance
0.4305480060	decompositions
0.4305480060	parameterized
0.4305480060	emerging
0.4303952957	approaches
0.4303705156	fit
0.4303413915	effective sample
0.4302026909	improve
0.4301399409	lack
0.4300349150	bayesian neural
0.4299439403	routines
0.4299439403	appropriately
0.4299439403	recommendations
0.4299439403	weakly
0.4297693544	chain
0.4292352060	exist
0.4291978407	estimates
0.4290538591	coin
0.4290327915	research
0.4288288813	ranks
0.4288085783	truncation
0.4285596239	^ *
0.4285341722	transformations
0.4279450277	somewhat
0.4279278797	characterize
0.4278899933	type
0.4278001512	utility
0.4271380508	lead
0.4271175745	validated
0.4270856480	target probability
0.4268987231	data point
0.4266726630	expression data
0.4265900657	user specified
0.4265481376	improvements
0.4264709088	p value
0.4263825853	related
0.4263528440	publicly available
0.4263160608	handles
0.4263160608	faces
0.4263160608	players
0.4263160608	internal
0.4263160608	simplest
0.4263160608	bottlenecks
0.4263160608	encode
0.4263160608	unknowns
0.4263160608	documentation
0.4263160608	blocked
0.4263160608	eigenvectors
0.4263160608	mappings
0.4263160608	inefficiency
0.4263160608	possesses
0.4263160608	foundation
0.4263160608	a.k.a
0.4263160608	propagated
0.4263160608	suggesting
0.4263160608	calculates
0.4263160608	instability
0.4263160608	corrupted
0.4263160608	proxy
0.4263160608	reliably
0.4263160608	viable
0.4263160608	fundamentally
0.4263160608	remedy
0.4263160608	adds
0.4263160608	shorter
0.4263160608	redshift
0.4263160608	outperformed
0.4263160608	hope
0.4263160608	attain
0.4263160608	projects
0.4263160608	proofs
0.4263160608	implied
0.4263160608	characterise
0.4263160608	characterizes
0.4263160608	adjacent
0.4263160608	paradigms
0.4263160608	recovers
0.4263160608	consumption
0.4263160608	peaks
0.4262820874	implementations
0.4261875860	does
0.4260794097	to
0.4259514230	criteria
0.4258308436	methodology
0.4255973971	carried out
0.4255765961	exponential random
0.4255582906	one
0.4255350826	purely
0.4252628638	handle
0.4252136886	detect
0.4251239308	relies
0.4251114912	situation
0.4250666958	wide class
0.4249487227	outputs
0.4248840964	recursively
0.4248840964	module
0.4248840964	symmetries
0.4248840964	constructions
0.4248840964	poses
0.4248840964	devise
0.4248840964	ern
0.4248840964	decomposed
0.4248840964	rigorously
0.4248840964	beneficial
0.4248840964	add
0.4248840964	mentioned
0.4248840964	admit
0.4248840964	outline
0.4248840964	undesirable
0.4248840964	covering
0.4248840964	regard
0.4248840964	varies
0.4248840964	generality
0.4247617406	due
0.4246883181	ergodic
0.4246399260	popular
0.4245835994	analytic
0.4245737884	encountered
0.4245517699	outcome
0.4244740014	infeasible
0.4243516508	connected
0.4243476101	article
0.4242710908	step
0.4242554228	varying
0.4242202812	eigenvector
0.4242202812	relates
0.4241945510	access
0.4239461336	accuracy
0.4234641534	sense
0.4234317769	addition
0.4233390410	straightforward
0.4233275321	discard
0.4233275321	temperatures
0.4233275321	vast
0.4233275321	normalization
0.4233275321	papers
0.4233275321	decomposable
0.4233275321	forming
0.4233275321	selects
0.4233275321	biases
0.4233275321	cast
0.4233275321	aggregating
0.4233275321	explains
0.4233275321	intended
0.4233275321	queries
0.4233275321	accommodates
0.4233275321	equally
0.4233275321	comprising
0.4233275321	distant
0.4233275321	recommend
0.4233275321	style
0.4233275321	resolve
0.4233275321	quantifies
0.4233275321	plain
0.4233275321	thought
0.4233275321	arxiv
0.4233275321	unreliable
0.4233275321	clarify
0.4233275321	experience
0.4233275321	deployed
0.4233275321	apparent
0.4233275321	mapped
0.4233275321	favourable
0.4233275321	fall
0.4230586211	relative
0.4230543971	seconds
0.4230543971	integrands
0.4230520300	dataset
0.4229458562	suited
0.4228664329	permutations
0.4228217513	adaptive sparse
0.4227078136	yet
0.4224071762	data analyses
0.4223055238	implicitly
0.4223055238	extremes
0.4223055238	hyperparameter
0.4223055238	specifications
0.4223055238	coherent
0.4220704201	propagating
0.4219811039	efficiently
0.4219536824	solvers
0.4216162465	created
0.4215528867	^ 4
0.4215239545	standard monte
0.4214702535	approximated
0.4214600496	accepted
0.4213664844	speed
0.4212961989	concept
0.4212454245	conditions
0.4212006253	examples demonstrate
0.4211748172	article describes
0.4211736020	costly
0.4211097559	modeling approach
0.4211081603	mean
0.4210920317	gains
0.4210526752	intractable
0.4209083125	system
0.4208878638	disease
0.4208323911	regularisation
0.4208323911	opportunities
0.4208323911	schedule
0.4208323911	famous
0.4208323911	showcase
0.4208323911	decide
0.4208323911	propagate
0.4208323911	histograms
0.4208323911	systematically
0.4208323911	patient
0.4208323911	shifts
0.4208323911	inaccurate
0.4208323911	parameterizations
0.4208323911	preferred
0.4208323911	derives
0.4208323911	brought
0.4208323911	analysed
0.4208323911	inexpensive
0.4208323911	prescribed
0.4208323911	goals
0.4208323911	revisit
0.4208323911	calls
0.4208323911	relate
0.4208323911	relaxed
0.4208323911	bring
0.4208323911	saturated
0.4208323911	helps
0.4208323911	pool
0.4208323911	solely
0.4208323911	operate
0.4208323911	obtains
0.4208118357	avoid
0.4207898784	superior
0.4207212560	agents
0.4206547023	coverage
0.4206430996	three
0.4205900026	multiple importance
0.4205530752	unknown model
0.4204993930	closer
0.4204993930	profiles
0.4203809252	based markov chain monte
0.4203476457	types
0.4202013065	integrator
0.4202013065	workflow
0.4202013065	model's
0.4202013065	integrators
0.4202013065	inflation
0.4202013065	brings
0.4202013065	corrections
0.4202013065	preprocessing
0.4202013065	offering
0.4202013065	broadly
0.4202013065	promise
0.4202013065	enjoys
0.4202013065	establishes
0.4202013065	reproduce
0.4202013065	motivates
0.4202013065	familiar
0.4202013065	mixes
0.4202013065	severely
0.4202013065	innovation
0.4202013065	moderately
0.4202013065	author
0.4202013065	proving
0.4202013065	accompanying
0.4202013065	proves
0.4202013065	quantified
0.4201851105	fine
0.4200785868	original
0.4200764611	this paper proposes
0.4200038666	using
0.4199677639	validate
0.4198312968	there
0.4197591151	outside
0.4196094078	modeled
0.4195722277	come
0.4195721959	forms
0.4195659248	avoiding
0.4194207006	resulting model
0.4193410846	total
0.4192895777	computationally
0.4191890980	classic
0.4187732265	efficient optimization
0.4186862172	correlation
0.4185632062	frequentist
0.4183728790	small subset
0.4181445680	presented
0.4179991941	_
0.4175983155	event probability
0.4175810396	increasing
0.4175037497	dense
0.4173661533	subsamples
0.4173261844	individual
0.4172619611	analyse
0.4171432138	running
0.4170897317	et
0.4168901418	time series analysis
0.4168305343	significant
0.4167544301	furthermore
0.4167543131	features
0.4167537497	concepts
0.4167537497	enabling
0.4166407633	carlo sampler
0.4164504216	least
0.4164193280	expression
0.4163978311	from
0.4163162253	whenever
0.4162983648	followed
0.4162737193	non gaussian state space models
0.4162542577	relevant
0.4160978218	written
0.4159548092	advantage
0.4159531892	component
0.4159300293	computing optimal
0.4159187364	students
0.4159187364	coarse
0.4158478580	thereby
0.4157406048	literature
0.4156004271	observation
0.4154865899	unique
0.4153918194	towards
0.4152555857	whole
0.4152280183	parametrization
0.4152280183	traits
0.4151427684	typically
0.4150318637	slow
0.4150140108	binomial distribution
0.4150128118	arrive
0.4150128118	maximizes
0.4150128118	outlined
0.4150128118	minimized
0.4150128118	rendering
0.4150128118	repeatedly
0.4150128118	return
0.4150128118	discrepancies
0.4150128118	separated
0.4150128118	delivers
0.4150128118	attained
0.4150128118	barriers
0.4150128118	affects
0.4150128118	kurtosis
0.4150128118	linearity
0.4150128118	attains
0.4150128118	balanced
0.4150128118	finer
0.4150128118	spurious
0.4150128118	reporting
0.4150128118	opens
0.4150128118	perturbed
0.4150128118	removes
0.4150128118	captures
0.4150128118	proceeds
0.4150128118	flexibly
0.4150128118	heavily
0.4150128118	reformulate
0.4150128118	modules
0.4150128118	concern
0.4150128118	overcomes
0.4150128118	couple
0.4150128118	digits
0.4150128118	nontrivial
0.4149603755	this paper presents
0.4149100621	contrast
0.4148692751	ill
0.4148147726	phenomena
0.4148147726	setup
0.4148014419	cases
0.4146551819	these
0.4145797880	true
0.4145056749	resulting
0.4144419441	convergent
0.4144363097	presented to illustrate
0.4143030687	moreover
0.4141846653	generalization
0.4140201389	inputs
0.4140065571	behaviour
0.4138029158	details
0.4137939461	burden
0.4137705641	techniques
0.4136689836	consequently
0.4135764087	posteriors
0.4134999674	well established
0.4133574545	simulations demonstrate
0.4131119003	introduced
0.4130661367	right
0.4130570927	misspecified
0.4128848446	300
0.4128790182	heavy
0.4126451096	thanks
0.4126047869	collected
0.4124590167	hand
0.4123611237	thousands
0.4123426549	predicted
0.4123426549	separately
0.4122831014	terms
0.4122652419	syntax
0.4122652419	list
0.4122268351	demands
0.4122268351	segment
0.4121473368	through
0.4120563243	provided
0.4113813876	several
0.4113218209	cost
0.4111274839	expectations
0.4110914820	procedure
0.4110119064	developed
0.4109238990	wide association
0.4109179092	line
0.4109098429	many
0.4108381683	6
0.4108262116	basic idea
0.4105892821	an extensive simulation study
0.4105107016	slower
0.4105107016	divided
0.4105107016	periods
0.4105107016	meaning
0.4105107016	heuristics
0.4105107016	reviewed
0.4105107016	hours
0.4105107016	strengths
0.4105107016	expect
0.4105107016	nonzero
0.4105107016	deviations
0.4105107016	enabled
0.4105107016	admits
0.4105107016	possess
0.4105107016	defines
0.4105107016	justified
0.4104988831	mixtures of multivariate
0.4103741795	try
0.4102513458	jumps
0.4102283227	correct
0.4099872362	computer
0.4099859020	type models
0.4098648353	mesh
0.4098648353	concentrated
0.4098648353	tractability
0.4098648353	efforts
0.4098648353	decade
0.4098648353	subproblems
0.4098648353	rejected
0.4098648353	thresholds
0.4098648353	excess
0.4098648353	contamination
0.4098648353	recovering
0.4098648353	circumstances
0.4098648353	diseases
0.4098648353	modify
0.4098648353	observable
0.4098648353	induce
0.4098648353	avoided
0.4098648353	recorded
0.4098221220	competitors
0.4098221220	popularity
0.4098221220	stronger
0.4098221220	extensively
0.4098221220	verified
0.4098056749	scheme
0.4096851839	formula
0.4095226728	minutes
0.4095226728	asset
0.4094697476	separability
0.4094530290	let
0.4094405042	subject
0.4094272589	given
0.4093525250	shown
0.4091677092	particles
0.4091456537	guarantee
0.4090538334	elements
0.4087943395	files
0.4087943395	detected
0.4087943395	pose
0.4087943395	primarily
0.4087943395	columns
0.4087943395	satisfying
0.4087943395	determines
0.4087943395	considerations
0.4087943395	inhomogeneous
0.4087943395	iterates
0.4087943395	satisfied
0.4087536140	peak
0.4087536140	sites
0.4085462276	comes
0.4084862686	both
0.4083463963	estimated
0.4082342412	reliable
0.4082281556	herein
0.4082108475	choose
0.4079735805	stage
0.4079701058	unless
0.4077798144	attractive
0.4075732452	none
0.4074880461	assignment
0.4074880461	integrates
0.4074880461	tumor
0.4074880461	reward
0.4074880461	learned
0.4074880461	progress
0.4074880461	imply
0.4074880461	counterpart
0.4074880461	suitably
0.4074880461	facilitating
0.4074880461	refinement
0.4074880461	affect
0.4074880461	extent
0.4074880461	fastest
0.4074880461	adjusting
0.4074880461	governing
0.4074880461	restrictive
0.4074162569	complex stochastic
0.4073368954	identifies
0.4073368954	satisfactory
0.4073368954	discusses
0.4073368954	explained
0.4073368954	preserve
0.4073368954	explores
0.4073368954	slowly
0.4073368954	routine
0.4073368954	widespread
0.4073368954	slightly
0.4071195411	adopted
0.4069802067	this paper introduces
0.4069573303	under
0.4067488544	effectiveness
0.4067431566	considers
0.4065200126	fold
0.4063276480	applied
0.4063212972	https
0.4062729375	supports
0.4062558938	question
0.4062537536	requiring
0.4060919431	areas
0.4060727468	wide
0.4059557572	also
0.4059132191	major
0.4059113908	conduct
0.4056549587	degenerate
0.4056549587	candidates
0.4055000154	differences
0.4054140134	principle
0.4053990815	effort
0.4053458771	regimes
0.4052379561	compute
0.4051448053	technique
0.4051146922	variant
0.4049603773	full
0.4046664893	incorporate
0.4042801302	general class
0.4041429070	variability
0.4040728781	meaningful
0.4040728781	valuable
0.4040728781	surveys
0.4040728781	categories
0.4040728781	analogous
0.4040728781	w.r.t
0.4040728781	reductions
0.4040728781	processed
0.4040723879	method for estimating
0.4039253941	least square
0.4039128018	value at risk
0.4038904704	together
0.4037919557	1994
0.4035587284	some
0.4034660039	widetilde \ mathcal o
0.4033458771	turns
0.4032941022	tends
0.4031670777	easy
0.4031151030	huge
0.4030123889	sized
0.4027840461	class
0.4027413807	indeed
0.4027331557	stochastic partial
0.4026945535	optimisation
0.4025595887	facilitate
0.4022337887	flexibility
0.4021254916	throughout
0.4021096049	smallest
0.4021061926	obtained
0.4018680773	measurements
0.4018253831	all
0.4018021533	inequalities
0.4018021533	mechanisms
0.4018021533	answer
0.4018021533	optimally
0.4017482261	ergodic markov
0.4017069249	added
0.4017069249	partitions
0.4016512855	construct
0.4016050984	formulation
0.4015039832	applicability
0.4013217211	problem of estimating
0.4013144988	accurate results
0.4013051995	exponentially
0.4011903651	technologies
0.4011896424	larger
0.4011825196	covariate
0.4011781028	consideration
0.4011781028	remaining
0.4011781028	operates
0.4011781028	requirement
0.4011781028	decreases
0.4010555348	challenging
0.4008648875	wise
0.4008536702	interesting
0.4007787515	however
0.4006921982	quantify
0.4006488963	time varying parameter
0.4005200099	\ textit
0.4004478836	statistically
0.4004478836	repeated
0.4003425463	within
0.4003075547	even
0.4002659402	de
0.4001381558	perhaps
0.4000836206	non stationary
0.3999970983	lower
0.3999021530	general approach
0.3996993851	take into account
0.3996821685	leverages
0.3996821685	execution
0.3996821685	decrease
0.3996821685	frequencies
0.3996821685	studying
0.3996821685	briefly
0.3996821685	problematic
0.3996063835	known
0.3995831770	path algorithm
0.3995150608	want
0.3994892126	pairwise
0.3994368576	inner
0.3994201362	select
0.3992415910	combine
0.3992123096	successful
0.3990369917	rows
0.3990369917	processors
0.3990311385	^ 3
0.3988255316	realistic
0.3988128370	sizes
0.3986869451	example
0.3985794602	dependency
0.3981136525	numerical solution
0.3980932828	parameterization
0.3980932828	cores
0.3980932828	simplified
0.3980932828	nominal
0.3980932828	unstable
0.3980598335	later
0.3980374667	study shows
0.3979214356	extension
0.3977636377	sampling distributions
0.3975500751	propose
0.3975490879	addresses
0.3974970348	initialization
0.3974747997	so called
0.3974654153	up
0.3974116266	article presents
0.3973422919	hybrid monte
0.3972937993	iteratively
0.3972283872	considered
0.3971660435	^ 2
0.3971230961	specific
0.3971113735	issues
0.3968839844	competitive
0.3968432849	19
0.3967810686	enable
0.3967146887	seems
0.3966788140	along
0.3965710610	uncertainties
0.3965358489	two
0.3965330250	measured
0.3965073509	at
0.3964570227	discretization
0.3961294057	although
0.3958303681	termed
0.3958303681	globally
0.3958303681	largely
0.3958303681	concerns
0.3958303681	associations
0.3957964280	populations
0.3957866716	defining
0.3957866716	constructs
0.3957866716	devices
0.3957866716	decreasing
0.3957319228	transformed
0.3957319228	preserving
0.3955758820	main
0.3955439816	various
0.3954610611	assess
0.3954256806	procedures
0.3953979177	weights
0.3953650477	attention
0.3952391894	dependencies
0.3950710359	feasible
0.3950584548	resampling
0.3949661708	kept
0.3949661708	immediate
0.3949661708	9
0.3949661708	nine
0.3949661708	eight
0.3949661708	200
0.3949661708	said
0.3949439267	gamma random
0.3949238370	contribution
0.3948241641	without
0.3947471113	fire
0.3946843536	built
0.3946290446	test data
0.3946003561	close
0.3942992818	involved
0.3942698273	questions
0.3942273046	fidelity
0.3941889610	published
0.3941395492	missing
0.3941299433	arbitrarily
0.3939712472	recent advances in
0.3937969283	effective
0.3937580875	gene
0.3936860386	successfully
0.3936018320	$
0.3935577782	hypotheses
0.3935531571	each
0.3933791869	whereas
0.3933497810	substantial
0.3933465344	^ 1
0.3931015249	focus
0.3930432776	developments
0.3929171200	efficient methods
0.3928293406	monte carlo based
0.3928148738	toward
0.3927555717	interpretable
0.3927555717	methodological
0.3927333384	takes
0.3926485048	but
0.3926180502	platforms
0.3926180502	impractical
0.3926180502	illustrating
0.3926180502	starts
0.3926180502	enjoy
0.3926180502	computes
0.3926180502	sensors
0.3926180502	tuned
0.3926180502	cover
0.3926180502	permits
0.3926180502	segments
0.3926180502	arguments
0.3926180502	favorable
0.3925867285	experiments on simulated
0.3925718977	looking
0.3925304167	frequently
0.3924749800	keep
0.3924462924	demonstrate
0.3923164603	co
0.3922086221	present
0.3920687189	bayesian variable
0.3919362447	increase
0.3918342404	bayesian synthetic
0.3917971883	behavior
0.3916847765	non linear
0.3916804802	context
0.3916245549	modes
0.3915822442	high dimensional multivariate
0.3914754125	defined
0.3913537094	tested
0.3913160200	efficient manner
0.3911965367	so
0.3911254309	configurations
0.3910163877	scores
0.3909572386	95
0.3909525434	required
0.3908836176	this paper develops
0.3908426309	fail
0.3907608305	domain
0.3906479888	optimal experimental
0.3906097464	main idea
0.3906082728	interpretation
0.3905758890	same
0.3903969472	high dimensional distributions
0.3903227654	completely
0.3903162297	uniform distribution
0.3903036881	compared to existing
0.3901402377	1992
0.3901402377	1995
0.3901402377	1997
0.3901149634	p values
0.3901095328	algorithm for solving
0.3899578771	integrated nested
0.3899212617	solved
0.3898008230	prior covariance
0.3896328495	patients
0.3893790164	called
0.3893765906	develop
0.3893488819	proved
0.3893047144	among
0.3890641977	dimensional problems
0.3890182833	overcome
0.3889920976	operation
0.3889091414	million
0.3886309256	optimal bayesian
0.3885946317	illustrate
0.3885583093	outperform
0.3885460252	initial
0.3885444388	edges
0.3883774779	goes to infinity
0.3881417369	obtain
0.3880299061	1999
0.3879748645	arises
0.3877469598	provide
0.3877124945	inference scheme
0.3876132704	particular
0.3875127777	go
0.3875060022	experiment
0.3873259755	compared
0.3873200290	5
0.3872766155	simulate
0.3871887367	arise
0.3871212610	sub
0.3871067341	trained
0.3871067341	reveals
0.3871067341	severe
0.3869096055	evaluate
0.3869094083	well understood
0.3868110490	k nearest
0.3865309012	no
0.3863270328	rather
0.3862549808	build
0.3862521655	require
0.3862155300	leverage
0.3861678746	un
0.3861347715	converge
0.3861159094	introduce
0.3860814261	works
0.3860318749	much
0.3859962293	1
0.3859488084	i.i.d
0.3858948001	in high dimensions
0.3858320807	r packages
0.3854604844	\
0.3853030664	inferences
0.3851775937	depends
0.3850585066	strongly
0.3850231382	issue
0.3848272514	easier
0.3847479766	density estimates
0.3846500771	numerically
0.3845555156	considerably
0.3841903813	gain
0.3838286776	reduce
0.3837607354	natural
0.3835919053	seen
0.3832824721	address
0.3832801512	expressions
0.3830002343	items
0.3829452842	why
0.3829450188	randomly
0.3829450188	marginals
0.3829239878	approximately
0.3828280180	result
0.3828217289	examine
0.3828016752	biological
0.3826646881	1998
0.3826535461	adaptively
0.3826109860	thereby allowing
0.3825776345	particle markov
0.3823826436	2
0.3823140514	including
0.3819474151	acceptance
0.3819468748	account
0.3819221051	derived
0.3819142485	conducted
0.3819061720	numbers
0.3816333545	problem of learning
0.3816206046	uniformly
0.3814150626	the present paper
0.3812148683	employ
0.3811492255	determine
0.3811035718	way
0.3809740960	with
0.3807245794	standard gaussian
0.3805481640	additional computational
0.3805216792	course
0.3804928324	choice
0.3801776513	domains
0.3800812558	carlo techniques
0.3799767450	solve
0.3799084035	perform
0.3798812223	components
0.3796478063	neither
0.3796270012	regression methods
0.3795819870	start
0.3795819870	overfitting
0.3795819870	examined
0.3795819870	gained
0.3795819870	share
0.3795819870	implies
0.3795819870	speedup
0.3795819870	consistently
0.3795808838	often
0.3793508562	small set
0.3792940670	structures
0.3792833234	quantities
0.3792567552	solver
0.3792314964	bottleneck
0.3792314964	purposes
0.3792314964	stationarity
0.3789877014	first order
0.3788738588	speed up
0.3788312130	matches
0.3787493802	years
0.3787234219	operators
0.3786926666	implement
0.3786820056	a central limit
0.3786681889	equivalent
0.3785928875	n ^ 1
0.3783937431	taken into account
0.3783911847	dimensional parameter
0.3782420784	apply
0.3780290759	year
0.3779599346	further
0.3779308507	plays
0.3779308507	argue
0.3779308507	broader
0.3779308507	differ
0.3779308507	inside
0.3778994990	clusters
0.3778461418	based optimization
0.3778052654	particularly
0.3776270880	selected
0.3775753870	little
0.3775612433	non convex optimization
0.3773818153	employed
0.3772458901	serial
0.3772458901	assumes
0.3772458901	ensures
0.3772458901	controls
0.3772458901	counterparts
0.3772458901	optimum
0.3772458901	roughly
0.3770494146	system identification
0.3770256995	important task
0.3769575546	compare
0.3769173366	unobserved
0.3768507124	targets
0.3768174672	hard
0.3767254840	high dimensional models
0.3765638446	generated
0.3765478988	despite
0.3764723916	choosing
0.3763027423	curves
0.3762754180	evaluations
0.3761665335	2005
0.3761127265	2007
0.3760904417	block coordinate
0.3760787656	it
0.3760434012	showed
0.3760434012	minimizes
0.3760434012	vary
0.3759594116	technical
0.3759404606	derive
0.3757864729	applicable
0.3757148349	1996
0.3757148349	2004
0.3754068213	requires
0.3752817588	informative
0.3752739159	explore
0.3752647886	strategy
0.3751984637	play
0.3751984637	prohibitively
0.3751984637	satisfies
0.3751984637	contexts
0.3751984637	inherent
0.3751269491	2000
0.3748633345	class of models
0.3748230093	generate
0.3747656880	node
0.3745892025	the bouncy particle
0.3745357525	updated
0.3745183597	discuss
0.3743987776	particle sampler
0.3742826950	expensive
0.3741697703	showing
0.3740790089	needed
0.3740135970	vs
0.3739859091	assume
0.3739775878	a wide range
0.3739741669	implemented
0.3739254553	not
0.3738146471	intermediate
0.3738146471	libraries
0.3737537460	provably
0.3737537460	giving
0.3737537460	readily
0.3737537460	poorly
0.3737537460	yielding
0.3736560354	frameworks
0.3736560354	finds
0.3736560354	remain
0.3736560354	occurs
0.3735622007	it's
0.3735622007	amongst
0.3735622007	seem
0.3735622007	unlikely
0.3735622007	16
0.3735622007	merely
0.3734560335	magnitude
0.3733880146	maximization algorithm
0.3733501041	signals
0.3732941145	illustrated
0.3731803994	leads
0.3730440117	performs
0.3729704049	proposes
0.3728816731	achieve
0.3726806251	explored
0.3726806251	cells
0.3726806251	wider
0.3726806251	requirements
0.3726806251	versus
0.3726222582	large number
0.3726100377	adaptive monte carlo
0.3725191149	plots
0.3724203900	our
0.3723110963	increasing number
0.3722409367	statisticians
0.3722358771	prove
0.3722316576	smaller
0.3720687854	intervals
0.3719713164	employs
0.3719713164	sufficiently
0.3719713164	disciplines
0.3719713164	fits
0.3719508454	models with intractable
0.3719125302	allowing
0.3718693070	bayesian computing
0.3716879092	achieved
0.3715964365	we
0.3714807469	powerful
0.3714632422	counts
0.3714442405	*
0.3711766230	highly
0.3711446301	term
0.3710471583	vectors
0.3710088045	demonstrated
0.3709513886	powerful tools for
0.3708992645	sampling based
0.3707601461	\ ldots
0.3707289006	orders of magnitude faster
0.3706875226	no longer
0.3706394543	\ frac
0.3706162666	mode
0.3705063522	evaluated
0.3704891995	proposals
0.3704434012	hazard
0.3704396576	advantages
0.3703981639	over
0.3702562589	update
0.3700548317	of
0.3699817097	states
0.3698378518	1.5
0.3698378518	thorough
0.3698378518	14
0.3698378518	truly
0.3698378518	1000
0.3698378518	ignored
0.3698378518	18
0.3698363423	2001
0.3694818444	suggest
0.3694758760	identify
0.3693665500	reduces
0.3692234024	until
0.3691116345	sequences
0.3690787483	significantly faster than
0.3690600566	again
0.3689065159	below
0.3689061185	efficient markov chain monte carlo
0.3684828759	estimation algorithms
0.3684331534	variation
0.3681401569	adaptive markov chain
0.3681321043	assumptions
0.3680295177	2002
0.3680295177	2003
0.3680193268	selection problem
0.3679358838	fashion
0.3679358838	principles
0.3677928742	amount
0.3677017037	conventional
0.3676944873	near
0.3676572453	therefore
0.3675970109	widely
0.3675223785	performed
0.3673316259	representing
0.3671787850	joint posterior distribution
0.3671037801	non markovian
0.3669926246	most likely
0.3669788691	another
0.3669320943	dramatically
0.3669050591	what
0.3668617205	regions
0.3668439922	\ emph
0.3664112320	independent samples
0.3662654606	substantially
0.3662477264	growing
0.3662187524	important problem
0.3659915946	trade off between
0.3658344011	operations
0.3655705791	represent
0.3655289790	others
0.3654024721	than
0.3653773667	dimensional data
0.3651823592	32
0.3650723614	since
0.3646853443	settings
0.3644370502	according
0.3643754244	number of components
0.3643691254	consider
0.3643624531	very
0.3640824137	providing
0.3639871602	linear state space
0.3637858535	commonly used
0.3636039524	rather than
0.3635963414	discussed
0.3635795613	describes
0.3634236260	use
0.3633654977	good
0.3632377454	adopt
0.3632377454	demonstrating
0.3632377454	accessible
0.3629145888	bayesian statistical
0.3628972134	suitable
0.3628211748	iterations
0.3626882992	idea
0.3626572453	after
0.3625909915	offer
0.3624977262	packages
0.3624530026	predictors
0.3622775628	ordering
0.3621350559	represents
0.3621350559	solves
0.3621350559	correctly
0.3621350559	intuitive
0.3621350559	exhibits
0.3621019243	define
0.3620489671	layer
0.3620212396	far
0.3617804470	they
0.3615345893	mechanism
0.3614615828	easily
0.3614464319	designed
0.3614440352	resulting posterior
0.3614412859	graph model
0.3613634689	improves
0.3613255161	task
0.3612751036	analyze
0.3611581234	appear
0.3611188916	specify
0.3608083191	\ epsilon
0.3607299312	provide empirical
0.3606399549	interest
0.3604307727	off
0.3601884323	design problems
0.3600921063	produce
0.3600598556	number of clusters
0.3598774654	`
0.3598675888	computed
0.3598243755	true posterior
0.3597458922	latter
0.3597063089	summaries
0.3596912919	strategies
0.3596550885	novel
0.3592233251	when
0.3591278950	significantly
0.3590870878	decisions
0.3590870878	carefully
0.3590870878	producing
0.3588738855	manner
0.3588549163	detail
0.3586016224	methods for solving
0.3585238577	extremely
0.3585073532	nearly
0.3584762287	constructed
0.3583664197	analytically
0.3580247224	\ cdot
0.3579097918	time to event
0.3578788059	utilizes
0.3578788059	fewer
0.3578788059	separate
0.3578788059	negligible
0.3577713831	between
0.3576291418	best
0.3575813128	an empirical study
0.3575238577	trajectories
0.3574215928	based inference
0.3573958754	available
0.3573836381	reversible jump markov
0.3573684735	mcmc based
0.3573402135	limited
0.3571959368	exploit
0.3571617466	the ensemble kalman filter
0.3570980299	directly
0.3569884555	log gaussian
0.3568170317	non asymptotic
0.3567179011	well
0.3567117437	considerable
0.3567097182	establish
0.3566479933	based sensitivity
0.3566308745	ideas
0.3564360411	yield
0.3562438789	clearly
0.3560082149	assumption
0.3559997898	carlo experiments
0.3558897682	distinct
0.3558897682	methodologies
0.3558484774	makes
0.3556489607	enough
0.3556079852	tries
0.3556079852	25
0.3556079852	seven
0.3556079852	say
0.3556079852	people
0.3555565381	2020
0.3554943789	24
0.3554024418	scenarios
0.3553704738	shows
0.3551841683	tends to infinity
0.3551067011	subsequent
0.3549074875	order to reduce
0.3547444023	the zig zag process
0.3547423841	flexible framework
0.3546128937	wide variety of
0.3544694902	variational gaussian
0.3544086433	bounded
0.3543408148	commonly
0.3542573520	metropolis hastings algorithm
0.3542324960	difficult
0.3541937464	better
0.3539919610	2019
0.3538305097	calculations
0.3538144488	ratios
0.3535287658	investigate
0.3533916717	4
0.3533597791	beyond
0.3533237146	introduces
0.3533063489	this paper describes
0.3532896640	regarding
0.3531785892	responses
0.3530287658	extend
0.3529976028	used
0.3528265229	methods provide
0.3526107335	yields
0.3525836084	corresponding
0.3525494354	parametric statistical
0.3524969520	based method
0.3524176637	presents
0.3523788059	confirm
0.3523788059	highlight
0.3523126894	tasks
0.3522917573	causes
0.3522452977	64
0.3522410333	\ leq
0.3519160814	see
0.3518933609	number of samples
0.3515587463	re
0.3514329213	back
0.3513480247	type algorithms
0.3513099245	method performs
0.3512292539	2008
0.3511360649	involving
0.3510092797	coefficients
0.3508094064	n ^ 3
0.3507317832	because
0.3507043545	outperforms
0.3506545064	an open source
0.3506225804	other
0.3500752970	able
0.3500738057	complex data
0.3500595396	achieves
0.3496645487	never
0.3496645487	whereby
0.3496645487	fill
0.3495052220	specified
0.3491564037	finite mixtures of
0.3490793141	analyses
0.3485026196	subjects
0.3483833985	incorporates
0.3483833985	independently
0.3483833985	describing
0.3483833985	appealing
0.3482948097	time evolving
0.3482735815	the integrated nested laplace approximation
0.3481261157	different
0.3481076920	identified
0.3481076920	exists
0.3481076920	avoids
0.3481076920	generalizes
0.3481076920	generalize
0.3480381343	work
0.3479022082	2018
0.3478202924	a popular tool
0.3474619379	images
0.3473938796	\ texttt
0.3473813914	scales
0.3470469035	especially
0.3467933978	reasonably
0.3467933978	40
0.3467933978	wherein
0.3466807598	blocks
0.3465435466	wide range of applications
0.3464451952	inference algorithm
0.3463687907	carlo error
0.3461938526	value
0.3461553594	studied
0.3456532036	number of measurements
0.3454440928	github.com
0.3453430196	who
0.3451074679	sampled
0.3450502354	near optimal
0.3447375422	specifying
0.3445909567	7
0.3445080543	authors
0.3445080543	follow
0.3445026196	received
0.3445026196	formulate
0.3444449689	becoming
0.3444342001	include
0.3444030118	observe
0.3444030118	addressed
0.3444030118	illustrates
0.3441860789	suggests
0.3440212500	standard particle
0.3440194123	genes
0.3439233633	\ cite
0.3437009108	allows
0.3433980912	r inla
0.3433512561	runtime
0.3432391443	objects
0.3431831687	non reversible markov
0.3430529897	markov random
0.3428734090	directions
0.3428190130	joint posterior
0.3427819526	^
0.3426222711	carlo samplers
0.3423345894	zero
0.3420804618	mat \
0.3420019400	10
0.3418296190	based clustering
0.3417263720	outcomes
0.3416916301	estimation algorithm
0.3413581391	3
0.3413555196	importance sampling algorithms
0.3410194123	generates
0.3410194123	quickly
0.3410182917	us
0.3409465007	edge
0.3408496418	|
0.3406097834	importance sampling algorithm
0.3405786009	name
0.3405786009	96
0.3405786009	sure
0.3403224171	this chapter
0.3400317116	or
0.3399202393	any
0.3394269370	actually
0.3394269370	ten
0.3390356883	moves
0.3389789739	indicates
0.3389789739	entirely
0.3389789739	mostly
0.3387782734	established
0.3384285455	metrics
0.3383914410	simpler
0.3382141697	least squares estimator
0.3381727750	\ geq
0.3379891623	indicate
0.3378166229	out
0.3377844715	named
0.3377844715	analyzed
0.3377844715	approximates
0.3374112081	+
0.3367999533	standard markov chain monte
0.3365739306	\ varepsilon
0.3365100434	possible
0.3361554197	ones
0.3360746488	2009
0.3358134473	\ sigma
0.3357944073	number of observations
0.3357646666	without sacrificing
0.3355678560	in recent years
0.3354868391	individuals
0.3354868391	candidate
0.3354868391	rapidly
0.3352686965	unified framework for
0.3352308493	time series models
0.3343296398	and
0.3343179192	dimensional gaussian
0.3335176285	2012
0.3332550290	\ underline
0.3330940488	jointly
0.3330940488	scenario
0.3328759937	put
0.3327007414	sequentially
0.3326888406	hyperparameters
0.3324763598	$ \ ell_0
0.3323874214	\ rightarrow
0.3321657143	during
0.3318316938	~
0.3317409997	likelihood estimates
0.3316979106	nonlinear state
0.3316393735	family of distributions
0.3313944755	like
0.3312846992	moderate
0.3312846992	grows
0.3308268754	an important tool
0.3304505427	well suited
0.3301638215	sampling approach
0.3300843497	likely
0.3300362984	poor
0.3299593083	does not require
0.3298550047	chain monte carlo sampling
0.3298305912	effectively
0.3297319825	had
0.3295176285	2006
0.3294325936	efficient estimation
0.3294146648	simulation studies and real
0.3293539872	n ^ 2
0.3293015915	biased
0.3289608897	inefficient
0.3289608897	fitted
0.3287767785	methods for estimating
0.3282862876	\ circ
0.3282599977	via
0.3280962041	2017
0.3277613802	show
0.3276953425	maximum likelihood estimation of
0.3274965604	almost
0.3274605921	popular approach
0.3273977189	taken
0.3271008868	alone
0.3271008868	2d
0.3271008868	believe
0.3270070425	expectations with respect
0.3268227709	\ delta
0.3264842669	\ kappa
0.3263066225	non conjugate
0.3262081491	\ ln
0.3261517119	_ t
0.3261138808	\ infty
0.3260414295	physical
0.3257294378	variable models
0.3257018007	\ vert
0.3256764153	empirical study
0.3256134489	widely used
0.3255732493	large number of
0.3255551332	underlying
0.3255338727	well known
0.3253837210	into
0.3252890276	gaussian state space models
0.3251674651	possibly
0.3250576131	only
0.3247552892	themselves
0.3247552892	30
0.3245803007	limiting
0.3243964360	exploits
0.3238893277	its
0.3238484181	demonstrates
0.3238484181	suggested
0.3238448777	\ ge
0.3238159184	\ right
0.3235726535	greater than
0.3234855889	algorithm called
0.3234749599	50
0.3234671793	density based
0.3230929668	metropolis hastings sampler
0.3227815470	mean field
0.3227216281	direction method
0.3223203721	namely
0.3222796635	2015
0.3221420156	about
0.3216311741	complex model
0.3215849605	facilitates
0.3215190660	calculated
0.3215190660	greatly
0.3213668517	adaptive algorithm
0.3213436880	multivariate stochastic
0.3212139768	necessary
0.3208367626	even though
0.3207507056	carlo estimation
0.3206751594	inferential
0.3206751594	ways
0.3204348842	data examples
0.3204244187	done
0.3203324444	paper addresses
0.3202931753	simultaneously
0.3199639410	complicated
0.3197129027	provides
0.3195696548	$ \ ell_1
0.3194300535	particle markov chain
0.3193216799	out of sample
0.3191088118	non homogeneous
0.3190447227	2011
0.3190447227	2014
0.3190416754	side
0.3190362874	real data applications
0.3189108658	concerning
0.3189108658	nor
0.3188732502	cause
0.3184423406	while maintaining
0.3182739685	e.g
0.3179116485	potentially
0.3174328918	available on cran
0.3171686273	find
0.3170435427	first order methods
0.3170383152	accurately
0.3164612512	do
0.3164123775	continuous data
0.3162309676	importance sampling methods
0.3159216996	faster than
0.3155751637	3d
0.3154669450	2013
0.3154647357	real time
0.3152888631	nodes
0.3152762650	=
0.3152015106	associated
0.3150654645	relatively
0.3150154370	\ gg
0.3149336116	2016
0.3146116845	\ mbox
0.3144360967	well studied
0.3141684257	\ mu
0.3140514258	na \
0.3138340557	presence of outliers
0.3138317980	&
0.3137203086	carlo based
0.3137167972	non uniform
0.3136132665	make
0.3134305782	steps
0.3133841076	locations
0.3130629993	covariates
0.3129295668	help
0.3127923534	freely available
0.3124120237	updates
0.3122850365	increased
0.3122288289	principled way
0.3120246242	model input
0.3117690403	changes
0.3117515703	times faster than
0.3115812873	two dimensional
0.3114176501	simulation models
0.3113080599	day
0.3112941307	need
0.3112160733	0
0.3111383918	time series data
0.3110372251	conditional maximization
0.3108457313	adaptive metropolis
0.3106181641	four
0.3105896455	fr \
0.3104956587	2010
0.3101926609	^ 5
0.3100763866	alternatives
0.3098903190	necessary and sufficient
0.3097916309	stochastic variational
0.3097076896	second moment
0.3093407714	class of distributions
0.3091333060	exhibit
0.3086657778	auxiliary particle
0.3086563944	sometimes
0.3086456225	efficient algorithm
0.3085057304	process mixture model
0.3081333060	produces
0.3080551788	how
0.3076684257	\ mathbf
0.3073686491	a simulation study
0.3070986303	needs
0.3070761747	does not
0.3070328068	\ dots
0.3069997562	every
0.3065627901	\ bf
0.3064666393	implements
0.3064570049	uses
0.3063789557	take
0.3057353625	variety of applications
0.3056317004	having
0.3051800312	explicitly
0.3049317908	situations
0.3048711202	includes
0.3048102026	| |
0.3046362699	investigated
0.3045973728	do not
0.3045648503	certain
0.3044281990	\ ell
0.3044223714	combines
0.3043729921	selection method
0.3041990729	dynamical system
0.3041536397	100
0.3041213237	describe
0.3040932933	chosen
0.3040608974	allow
0.3040380749	finite number
0.3038868648	extends
0.3036362699	remains
0.3036258259	i.e
0.3035441944	described
0.3035168390	across
0.3033814480	always
0.3033089273	the true posterior
0.3031027703	\ beta
0.3030890380	involve
0.3026532345	should
0.3025579289	order to estimate
0.3023780277	upon
0.3018021788	enables
0.3017769525	per
0.3015262600	own
0.3014223714	automatically
0.3013883936	well defined
0.3010595293	follows
0.3010373451	offers
0.3010128696	involves
0.3010093236	few
0.3009230463	five
0.3008456241	appropriate
0.3007915471	temporal models
0.3007695637	still
0.3006446316	least squares regression
0.3006150305	otherwise
0.3004666232	computer code
0.3003864597	naturally
0.3000932933	desired
0.3000104066	performance compared
0.3000099506	increases
0.2998720855	number of variables
0.2998012517	the total number
0.2997684828	a bayesian approach
0.2994697244	\ theta
0.2993029113	concave density
0.2991636930	statistical method
0.2989734856	\ mathbb r ^ d
0.2989262600	top
0.2988229479	give
0.2982364645	restricted maximum
0.2981390445	before
0.2980548553	etc
0.2972690480	\ hat
0.2972402659	reversible markov chain
0.2971487802	gives
0.2965791638	their
0.2964081228	this article describes
0.2960896711	an empirical bayes
0.2960885004	per unit
0.2960836283	useful
0.2960256617	\ sim
0.2955998163	so far
0.2955299876	marginal algorithm
0.2955110907	compared to standard
0.2954784497	onto
0.2952784191	against
0.2951464085	\ to \ infty
0.2948477897	fixed number of
0.2947323162	move
0.2946473838	class of algorithms
0.2946362421	become
0.2945203439	whether
0.2942732285	\ mathrm
0.2932364645	source software
0.2931882426	method for solving
0.2931849193	too
0.2930204006	this article introduces
0.2929598540	process prior
0.2928803917	non differentiable
0.2925780452	\ epsilon ^ 2
0.2921136205	found
0.2921012949	mainly
0.2918877313	squares estimator
0.2916681211	algorithm for fitting
0.2913665869	usually
0.2909827385	less
0.2909782929	in many cases
0.2904633723	not necessarily
0.2899902794	contain
0.2899148560	method to solve
0.2890285981	\ le
0.2889747723	method for computing
0.2886952647	\ sum_
0.2886682900	bayesian inference for
0.2880857239	alternating direction method of
0.2879595188	stable random
0.2877975082	simulation algorithms
0.2876049338	methods for computing
0.2873667277	\ pi_
0.2871148346	quantity of interest
0.2864672356	is
0.2863409094	non smooth
0.2861907384	algorithm to compute
0.2861539460	now
0.2859230737	8
0.2855400106	non convex
0.2854573799	matrix estimation
0.2853854146	\ ell_2
0.2851119135	$ \ ell_
0.2847698934	made
0.2844268419	non parametric estimation
0.2844168237	behind
0.2844168237	already
0.2843735660	\ mathcal s
0.2843713005	fixed number
0.2834603160	this article
0.2834289357	finite sample properties of
0.2830964232	become increasingly
0.2830289361	carlo method
0.2824571120	range of applications
0.2823249626	noise ratio
0.2823162919	analysis of complex
0.2822556929	exactly
0.2816581228	the parameter to
0.2815924443	multiple data
0.2812710647	unified framework
0.2811735395	containing
0.2809673749	monte carlo approach
0.2801681719	be
0.2801681719	which
0.2798802553	performs better than
0.2798749549	closely related to
0.2797535377	are
0.2795015052	can
0.2794919716	\ approx
0.2793261977	a real data set
0.2792868337	the shelf
0.2791438896	while retaining
0.2789057950	$ \ mathcal o
0.2787701657	carlo approximation
0.2784868710	that
0.2765769641	previous work
0.2763678472	been
0.2763654063	\ alpha
0.2760690337	may
0.2760049468	referred to as
0.2757011805	where
0.2749247964	bayesian analysis of
0.2748150097	connection between
0.2747931719	have
0.2747931719	has
0.2742945157	itself
0.2741303686	quantities of interest
0.2732772513	down
0.2730222618	with and without
0.2728729069	o \ left
0.2722916408	paper studies
0.2721964400	efficient method
0.2718453523	exact posterior
0.2718013828	this article presents
0.2717847975	\ boldsymbol
0.2716653683	\ sqrt
0.2716524790	might
0.2715911440	design problem
0.2713662786	$ \ mathcal
0.2712096002	particle markov chain monte
0.2711568609	^ d
0.2710580940	each iteration
0.2707395094	unknown number
0.2701113648	aimed at
0.2698647165	approximate mcmc
0.2697043619	those
0.2696067400	computational aspects of
0.2695927058	faster and more
0.2688149649	lower computational
0.2687698659	metropolis hastings algorithms
0.2683615862	large numbers of
0.2683296723	as special cases
0.2682117045	will
0.2681945564	optimal importance
0.2680632663	more accurate
0.2676905070	the way for
0.2676315718	chain monte carlo algorithms
0.2675997835	\ tt
0.2672216522	population monte
0.2671901002	learning framework
0.2666957610	carlo schemes
0.2662122662	much faster
0.2661580539	information about
0.2656905802	effects models
0.2656635565	high dimensional bayesian
0.2656263698	less than
0.2653530563	central limit theorem for
0.2649535732	a system of
0.2649450378	them
0.2649140198	algorithm for estimating
0.2648548450	with or without
0.2646684946	was
0.2646545416	\ tilde
0.2646303338	\ in \ mathcal
0.2637803002	performs well
0.2634752738	space and time
0.2634047927	for use in
0.2632335242	general model
0.2632118622	graphical models with
0.2631065242	mean and variance
0.2630586454	mean and covariance
0.2630354164	call
0.2630050063	\ pi
0.2625372830	simulation approach
0.2624053108	as opposed to
0.2623844677	$ l_1
0.2618500072	lasso problem
0.2617723710	the art
0.2617088127	quite
0.2612359323	contains
0.2610285236	a user friendly
0.2609456317	simulations and real
0.2607340806	suffers from
0.2603702303	above
0.2603497870	applications including
0.2600588620	this paper
0.2599024776	among others
0.2596710794	improve upon
0.2596242753	being
0.2596202303	respectively
0.2595896707	joint distribution
0.2590213814	gaussian component
0.2585139308	more precisely
0.2585034233	$ l_0
0.2579805469	\ widehat
0.2578401453	\ log
0.2578320833	larger than
0.2572484754	either
0.2571407926	algorithms for sampling
0.2570472136	\ widetilde
0.2566025780	type i
0.2564142371	\ lambda
0.2563991736	$ \ tilde o
0.2562555567	three dimensional
0.2550163259	gibbs random
0.2544545472	+ \ varepsilon
0.2543231448	this paper considers
0.2540452633	joint distribution of
0.2540101967	whose
0.2537072876	must
0.2537072876	around
0.2536846237	an important task
0.2536759337	cannot
0.2536704102	a fully bayesian
0.2534740581	an alternative approach
0.2534093884	a posteriori
0.2531567609	= 1
0.2530101967	were
0.2523578825	becomes
0.2522534093	much larger than
0.2520021135	a level
0.2518744355	an expectation maximization
0.2515328825	would
0.2513700056	sparse bayesian
0.2511968434	large set
0.2511699473	into account
0.2511196137	numerical model
0.2509683287	two stages
0.2509432293	tail probabilities of
0.2507969850	whether or not
0.2497799293	sequential bayesian
0.2497068143	\ mathbb
0.2495020477	monte carlo scheme
0.2484962830	with high probability
0.2484439384	^ n
0.2484181300	works well
0.2483048182	could
0.2482091453	epidemic models
0.2481050995	current state
0.2480826281	\ cal
0.2474061650	\ mathcal
0.2473159687	insight into
0.2472570940	dimensional bayesian
0.2470641669	high dimensional linear
0.2468721101	\ left
0.2466369434	10 ^
0.2461073177	andrieu et
0.2460677199	an em algorithm
0.2458552492	$ l_2
0.2456067677	rely on
0.2454636851	relationship between
0.2454471364	empirical results show
0.2453732056	the main idea
0.2453168661	varying parameter
0.2452558513	class of problems
0.2447310136	using markov chain monte carlo
0.2446244803	the false discovery rate
0.2440832650	coincides with
0.2435238403	the work of
0.2430241206	series analysis
0.2426786857	exploratory data
0.2426736593	zero variance
0.2424468983	simulation results show
0.2423728259	^ m
0.2423020973	motivated by
0.2421791666	special case of
0.2420402103	^ 6
0.2419371425	number of parameters
0.2416548226	present numerical
0.2416443417	incorporated into
0.2415673738	relies on
0.2412301553	total number of
0.2410823384	point detection
0.2408385870	dimensional multivariate
0.2407988501	algorithm for sampling
0.2407414375	the posterior distribution
0.2406898564	based on
0.2406510955	family of models
0.2401529877	\ in \ mathbb
0.2398438780	k means
0.2396290219	+ 1
0.2391995492	form solution
0.2391027325	as well as
0.2390698639	an unbiased estimator
0.2388807972	+ \ epsilon
0.2385889503	learning methods
0.2384006719	based sampling
0.2382943307	method to compute
0.2376083657	fit tests
0.2369806866	\ mathbf x
0.2368231281	efficient markov chain
0.2362835279	at least
0.2359317799	learning method
0.2359274686	an r package
0.2359019342	i = 1
0.2358374395	\ xi
0.2358343648	discrete time
0.2357873864	rank one
0.2356505790	viewed as
0.2353781764	\ in \
0.2353583382	log ^ 2
0.2350587114	depending on
0.2349581548	inspired by
0.2346104989	broad range of
0.2346103435	recent work
0.2343806360	= 0
0.2343194734	a central limit theorem
0.2340767691	number of points
0.2337351680	smaller than
0.2335539765	problem of computing
0.2326948898	standard markov
0.2325789386	process models
0.2319372992	fidelity models
0.2313968994	suffer from
0.2312867102	polynomial time
0.2312412335	space time
0.2311277417	selection methods
0.2307606752	response theory
0.2306230916	the effective sample size
0.2303808607	resulted in
0.2301903356	for large scale problems
0.2300403062	this paper addresses
0.2299521470	a bayesian framework
0.2299134115	clustering methods
0.2297961615	time dependent
0.2290537955	small subset of
0.2290443766	lower bound on
0.2288246633	the target distribution
0.2285322480	insights into
0.2284725783	an efficient
0.2284329717	the process of
0.2282348243	without requiring
0.2282072264	take advantage of
0.2281778696	the importance of
0.2281205081	efficient mcmc
0.2279235686	method to estimate
0.2277383152	the framework of
0.2276826505	maximum likelihood estimates of
0.2275389101	linear combinations of
0.2271778696	the focus of
0.2271303128	frequently used
0.2271259392	$ l_
0.2268448093	a computationally efficient
0.2267632544	regarded as
0.2261394747	arising from
0.2258559033	a case study
0.2257383152	the theory of
0.2254684221	the art methods
0.2248954207	algorithms provide
0.2247831959	$ \ alpha
0.2245047196	applied to real
0.2244329717	the setting of
0.2244276823	better than
0.2244117080	graph models
0.2242969172	the reliability of
0.2242951188	likelihood methods
0.2242658974	differences between
0.2242048922	efficient algorithms for
0.2241940039	the likelihood function
0.2240152592	relationships between
0.2233870118	gaussian model
0.2230553246	gradient mcmc
0.2228123118	bayesian experimental
0.2227870957	the gradient of
0.2226739390	ease of use
0.2225118796	regression method
0.2220390734	serves as
0.2220229167	low rank approximation of
0.2219178292	give rise to
0.2218788835	burn in
0.2218376371	regression based
0.2218260516	aims at
0.2217786755	plug in
0.2216592106	particular attention
0.2212969172	the domain of
0.2211772616	\ mathcal o
0.2210494813	caused by
0.2204817522	the selection of
0.2203806040	dimensional linear
0.2202306512	$ \ lambda
0.2194924300	ranging from
0.2193156555	focus on
0.2192969172	the uncertainty of
0.2192266501	the density of
0.2192266501	the support of
0.2192201345	likelihood estimators
0.2190120714	upper bound on
0.2190015382	estimation of parameters
0.2187973593	this manuscript
0.2185668598	depends on
0.2185175649	= \ frac
0.2181778696	a sample of
0.2179496896	\ in \ mathbb r ^
0.2173060369	due to
0.2172250113	maximum likelihood estimation for
0.2170779384	samples from
0.2168854411	corresponds to
0.2168619366	paper deals with
0.2167868036	adaptive monte
0.2166879710	the kullback leibler divergence
0.2166503736	efficient markov chain monte
0.2166155424	refers to
0.2157264957	more efficient
0.2156963161	convergence properties of
0.2155637820	governed by
0.2155320289	compared against
0.2154692406	followed by
0.2150426718	data generated
0.2149315937	good performance
0.2142002343	gradient methods
0.2141754390	$ \ theta
0.2139987839	real data example
0.2136656692	the power law
0.2135417807	dimensional binary
0.2134624790	no extra
0.2134464445	carlo sampling
0.2133924805	much faster than
0.2132977112	accompanied by
0.2132675240	numerical results show
0.2131826624	recent developments in
0.2130563696	computer model
0.2128938677	leads to
0.2125864943	dealing with
0.2125733260	sample properties
0.2125494459	the stiefel manifold
0.2122289502	$ \ pi
0.2119087296	least squares problem
0.2117161480	relying on
0.2116566991	approach to estimate
0.2116044326	flexible framework for
0.2115650546	bayesian method
0.2114009058	linear time
0.2113782030	lead to
0.2111849296	increasing number of
0.2108522735	a powerful tool
0.2104724858	a unified
0.2097403921	the joint posterior distribution
0.2096054898	problems governed by
0.2085215736	gives rise
0.2084512982	the em algorithm
0.2083456977	the scale of
0.2078733902	non zero
0.2077631298	general class of
0.2073734007	current state of
0.2072972935	regardless of
0.2072670083	broad class of
0.2071656044	theoretical properties of
0.2070987066	for large scale
0.2068828146	focused on
0.2068113127	bayesian computational
0.2066431856	a simple algorithm
0.2063456977	the inverse of
0.2062935248	with intractable likelihoods
0.2062438450	gaussian markov
0.2061756928	\ omega
0.2060885488	\ eta
0.2059365658	non local
0.2056234668	an auxiliary variable
0.2055396682	based model
0.2053741911	spatial point
0.2047912462	one step
0.2047277902	$ l_p
0.2046778925	magnitude faster than
0.2044388700	$ \ chi
0.2044320307	exact bayesian
0.2044159223	the basic idea
0.2043456977	a model of
0.2041032056	a particle filter
0.2039306531	this note
0.2038624925	knowledge about
0.2036771671	correspond to
0.2033703280	one dimensional
0.2031689922	event data
0.2029795467	analysis model
0.2029329914	coming from
0.2029078806	\ ell_1
0.2024842084	bayesian linear
0.2023918109	the objective function
0.2022307704	more efficient than
0.2022078320	lagrangian method
0.2021456796	depend on
0.2021386544	posterior distribution over
0.2016744322	nonparametric estimation of
0.2011244813	concerned with
0.2010339448	using sequential monte carlo
0.2008932255	$ \ widehat
0.2006880866	likelihood method
0.2004830999	true model
0.2002420289	$ l ^ 2
0.2000864235	one or more
0.2000176113	differs from
0.1995497163	variational inference for
0.1994580391	an approximate bayesian
0.1994328146	focuses on
0.1992265721	this paper studies
0.1991196165	bayesian inference using
0.1988921830	with respect to
0.1987436314	1 \ sqrt
0.1984834880	analysis of large
0.1983403992	$ \ cal
0.1982613308	compared to
0.1980691958	the log likelihood
0.1980162041	effects model
0.1980045292	fast computation of
0.1976550905	able to
0.1974412343	the null hypothesis
0.1971020259	both real and
0.1969118131	comprised of
0.1965939174	a bayesian nonparametric
0.1965490179	state space models with
0.1964546476	sparse polynomial
0.1964413381	as long as
0.1963752556	non gaussian state space
0.1961727801	the sample size
0.1960661512	data matrix
0.1959529516	efficient computation of
0.1953822109	model based clustering of
0.1953741237	partition function of
0.1952994343	balance between
0.1952446077	more than
0.1952415200	an exponential family
0.1952110415	number of
0.1950281525	the high fidelity model
0.1949057225	\ exp
0.1947378537	$ o
0.1947043306	complex computer
0.1945952234	marginal metropolis hastings
0.1939339682	an adaptive
0.1938728116	a low rank
0.1937870017	the cumulative distribution function
0.1937028217	\ rho
0.1934598481	non standard
0.1932367006	affected by
0.1931353606	bayesian inference via
0.1931144052	in order to
0.1930504686	the target density
0.1928980207	according to
0.1928135533	exact computation of
0.1925474242	the united states
0.1919668863	applied to
0.1918598525	a real dataset
0.1917127100	refer to
0.1913239677	close to
0.1910510396	performance computing
0.1908384658	a software
0.1908204701	class of adaptive
0.1907627298	class of methods
0.1902034886	open source r
0.1901108947	monte carlo method for
0.1901080141	sufficient conditions for
0.1900997857	doing so
0.1900490289	kinds of
0.1900255753	so as to
0.1895929599	gibbs sampler for
0.1893216574	approximate bayesian inference for
0.1892665174	the gibbs sampler
0.1892531394	interpreted as
0.1889881969	a priori
0.1889605936	handbook of
0.1889448449	metropolis algorithm
0.1888653585	several numerical examples
0.1886532864	a wide range of applications
0.1886272602	collections of
0.1884620969	abc model
0.1884597824	and real data applications
0.1881150271	algorithm to estimate
0.1878977919	the sample covariance matrix
0.1877432346	marginal mcmc
0.1876121310	\ em
0.1870585866	exact simulation of
0.1869957676	unbiased estimation of
0.1869482466	an upper bound
0.1861290757	data problems
0.1860656837	control variates for
0.1860376261	routinely used
0.1858421407	replaced by
0.1858087322	obtained by
0.1853348801	linear system
0.1853160839	on real and
0.1847740127	generating process
0.1845884111	scale mixture of
0.1845500451	inference for stochastic
0.1844764699	intractable distributions
0.1838246160	variable selection in
0.1837110753	efficient approach
0.1831437720	asymptotic properties of
0.1828184907	$ \ epsilon
0.1827215460	a small number
0.1826638991	conjunction with
0.1826352679	fast algorithm for
0.1824057438	through simulation studies
0.1823657644	\ textbf
0.1823288393	focusing on
0.1821505459	$ \ boldsymbol
0.1819571800	tests based on
0.1816560661	consists of
0.1815919169	an empirical
0.1815329287	em algorithm for
0.1813992551	dealt with
0.1810665303	asymptotic normality of
0.1805423880	two sample
0.1803135105	the marginal likelihood
0.1799635675	scales well
0.1798613542	post processing of
0.1798438814	makes use of
0.1795509794	state of
0.1790303939	in addition
0.1789771150	shown to
0.1789374795	r package called
0.1787174729	an exact
0.1783878292	\ mathbb r ^ n
0.1783648644	of components in
0.1782151227	best subset
0.1780722552	characterized by
0.1780664176	gradient algorithms
0.1780264067	statistical properties of
0.1779777602	a step
0.1779457794	wide class of
0.1779301942	special cases of
0.1778711708	the precision matrix
0.1776495124	consisting of
0.1774633273	by means of
0.1773382883	1 \ epsilon
0.1773174026	parameter estimation for
0.1768501584	for high dimensional data
0.1766591107	$ n
0.1764662575	technique based on
0.1760624210	in high dimensional settings
0.1759309612	bayesian information
0.1758830879	mean squared
0.1749519809	the bayesian information criterion
0.1747151928	popular method
0.1745023667	high dimensional parameter
0.1743185419	learning algorithm
0.1738343880	numerical experiments show
0.1738007666	dimensional models
0.1737705086	geometric ergodicity of
0.1736655064	an important role
0.1735041472	more general
0.1734665301	$ \ mathbf
0.1734635008	this work
0.1734401286	the state space
0.1732617659	covariance matrix of
0.1731858574	algorithm to sample
0.1727376068	n ^
0.1726630828	numerical solution of
0.1725731053	easy to
0.1722429418	tend to
0.1720525835	$ k
0.1719731416	also known as
0.1718209157	^ t
0.1716691136	to compute
0.1714054383	$ f
0.1713080684	compatible with
0.1711257080	required number of
0.1710246236	both synthetic and real
0.1710179353	running time
0.1710120525	discrete state
0.1710091666	series models
0.1708188861	three way
0.1705823852	such as
0.1704056783	\ phi
0.1702740164	| ^
0.1702671060	simulation algorithm
0.1700851298	linear combination of
0.1698571196	nonparametric density
0.1698025138	an infinite dimensional
0.1697850393	dimensional distributions
0.1695586588	the maximum likelihood estimator
0.1695388460	illustrated through
0.1695178443	out cross validation
0.1694713563	an importance sampling
0.1693152093	approach relies on
0.1692747148	two component
0.1686100789	$ algorithm
0.1684361049	a gaussian process
0.1683371641	methods for sampling
0.1682670755	make use of
0.1682002806	the observed data
0.1678172627	capable of
0.1676862663	useful tool
0.1675510029	bayesian approach to
0.1675290461	the model parameters
0.1669810502	non linear regression
0.1663128347	there exist
0.1662257634	amenable to
0.1661688695	belonging to
0.1660738117	in terms of
0.1656822614	the asymptotic behavior
0.1656066370	convergence rates for
0.1653933158	models provide
0.1653765535	estimation based
0.1653736426	hamiltonian monte carlo for
0.1653473969	the most popular
0.1653107823	in practice
0.1651415239	unknown number of
0.1651006535	$ p
0.1650661162	\ varphi
0.1647730785	an inverse problem
0.1643448689	particularly useful
0.1642017266	0,1 ^
0.1640828462	the model space
0.1639268479	look at
0.1638620838	allows users
0.1636471654	goodness of
0.1632004260	based upon
0.1630122579	$ \ pi_
0.1629660048	confidence intervals for
0.1628153461	version of
0.1625138380	connections between
0.1623955913	deals with
0.1622536146	sensitive to
0.1620304686	x ^
0.1618469574	n \ log n
0.1615462199	non gaussian state
0.1614430568	linear regression with
0.1613972645	flexible class of
0.1610805658	spite of
0.1609869682	contribute to
0.1605860643	the expectation maximization
0.1602994106	efficient estimation of
0.1602324442	do not require
0.1600882321	number of latent
0.1600174954	an order of magnitude
0.1597744637	method based on
0.1597521663	$ \
0.1597274125	metropolis sampling
0.1595343149	monte carlo sampler
0.1595329690	the kullback leibler
0.1591741245	bayesian estimation of
0.1591358749	both simulated and real data
0.1588967083	$ th
0.1585065702	on simulated data
0.1578299844	under mild
0.1576258804	class of
0.1574066502	parameter estimation in
0.1572493701	n \ log
0.1571281275	more likely
0.1568417537	the art performance
0.1568072854	small number of
0.1566969012	much larger
0.1565816730	leave one
0.1565297609	data likelihood
0.1563899788	the effects of
0.1563396917	a finite set
0.1563148977	carlo estimator
0.1561618221	in conjunction with
0.1560083663	the pseudo marginal
0.1555309213	a broad class of
0.1555294460	interested in
0.1555199684	error bounds for
0.1555019997	cpu time
0.1552048288	accounts for
0.1549223392	the memory
0.1548275048	the covariance matrix
0.1547917344	compared with
0.1546221511	leading to
0.1544839193	algorithm based
0.1538165890	second stage
0.1537179292	illustrated on
0.1534898316	$ \ xi
0.1534285925	on line
0.1529642781	serve as
0.1526715223	an extended
0.1526274542	the parameter space
0.1525253580	an important problem
0.1525201687	the nuclear norm
0.1524576140	achieved by
0.1524049141	l \
0.1522988006	represented by
0.1519960152	to obtain
0.1519817640	convergence rate of
0.1519642670	versions of
0.1519347283	package called
0.1516272284	an important
0.1516235166	the art algorithms
0.1515384102	contrary to
0.1512949098	the solution path
0.1511591501	future work
0.1510074319	\ sqrt n
0.1510066742	conditional distribution of
0.1509023562	an ensemble
0.1503317662	combined with
0.1502770240	the weighted
0.1496571723	summary statistics for
0.1495442622	step towards
0.1494271015	this paper focuses
0.1493883804	the use of
0.1492263008	generated by
0.1492071542	analysis of data
0.1490358363	derived from
0.1489288057	an effective
0.1488568968	belongs to
0.1487527542	an alternative
0.1486313088	properties of
0.1484898316	$ \ phi
0.1484760749	$ m
0.1483459020	emphasis on
0.1482606590	numerical experiments on
0.1481457585	a single
0.1480999015	r code
0.1478940614	currently available
0.1478080331	a semi parametric
0.1477792496	$ d
0.1477766303	to perform inference
0.1476916327	in state space models
0.1475672077	induced by
0.1471177213	illustrated using
0.1470991547	a state space model
0.1468928013	^ k
0.1468191555	sampling estimators
0.1467634947	tends to
0.1467633229	to generate samples
0.1465471635	efficient sampling of
0.1464937222	the r package
0.1462673872	a wide range of
0.1461227981	relatively small
0.1459685373	associated with
0.1452354632	variety of
0.1449523184	\ text
0.1447921021	a unifying
0.1445085437	procedure based on
0.1444538223	algorithm for bayesian
0.1442514882	bayesian data
0.1442157419	computer simulations
0.1441432514	the copula
0.1440372197	a unified framework
0.1439158045	convergence results for
0.1438333577	more sophisticated
0.1435787079	a large number
0.1435422387	the zig zag
0.1434407048	process model
0.1432478849	$ norm
0.1432040316	low computational
0.1430533276	related to
0.1430443766	an iterative algorithm
0.1430439614	an extensive simulation
0.1428232177	an illustration
0.1427511690	a bayesian
0.1426775454	a special case
0.1422860772	reduction methods
0.1419968105	time step
0.1419067480	monte carlo methods for
0.1418430580	a big data
0.1417630938	the regularization
0.1415827152	$ \ mu
0.1413265370	approximation based
0.1413064679	high dimensional random
0.1412340722	powerful tool for
0.1408675873	unbiased estimator of
0.1408052252	an accurate
0.1402660257	this problem
0.1402602896	a fast
0.1399090535	computation time
0.1398844698	sub optimal
0.1398627155	\ hat p
0.1398233764	convergence rates of
0.1393790849	assumptions about
0.1393584399	package for r
0.1392661746	of rare events
0.1392504868	not only
0.1392407641	drawn from
0.1392251687	sparse inverse
0.1390741148	asymptotic behavior of
0.1387919303	the key idea
0.1387702871	estimators based on
0.1386608867	discrete probability
0.1385584842	attempt to
0.1385007614	accounting for
0.1384815934	posterior density of
0.1384040316	linear inverse
0.1383404577	an efficient algorithm
0.1383277181	difficult to
0.1383009284	summary statistics of
0.1377207087	in population genetics
0.1376980323	regularized least
0.1376837129	a closed form
0.1376801968	a general framework
0.1374795223	a brief
0.1373808729	results indicate
0.1372443713	existing ones
0.1371212312	led to
0.1371097785	an efficient mcmc
0.1368133927	the fisher information
0.1361355587	obtained from
0.1361015602	used to estimate
0.1360726601	$ l ^
0.1360363439	sampling from
0.1359462780	the scaling
0.1356018987	and real data examples
0.1355345629	\ psi
0.1355313220	$ \ mathrm
0.1354976503	to reduce
0.1354291440	gaussian state
0.1349974112	to solve
0.1349315697	uncertainty quantification for
0.1349098699	a sequential monte carlo
0.1346582391	this issue
0.1344483224	a low dimensional
0.1343714238	a high dimensional
0.1343523031	particle filters for
0.1342804955	a challenging problem
0.1342229585	posterior model
0.1340580076	small n
0.1340409091	much less
0.1337470388	cost per
0.1336827124	than existing methods
0.1336038683	the main contribution
0.1334962247	efficient implementation of
0.1334840795	\ times
0.1333716707	to perform
0.1332691942	a finite number of
0.1329300643	method for bayesian
0.1329042107	n =
0.1328340334	this limitation
0.1327639576	produced by
0.1326718338	does not depend on
0.1325704599	the component
0.1325659976	the score function
0.1325385154	the probability density function
0.1320143616	data settings
0.1319471869	both synthetic and real data
0.1315300608	the original
0.1314971194	the maximum likelihood
0.1314668561	expressed as
0.1312968077	driven by
0.1312696349	owing to
0.1312272224	advantages over
0.1311851846	real data from
0.1311607667	approach to bayesian
0.1310544743	mixtures of
0.1309884689	free inference
0.1309603519	the same
0.1308523037	\ mathbb r
0.1308349706	respect to
0.1306827375	distribution function of
0.1306096926	approximation error of
0.1305559934	a new
0.1304874652	process based
0.1304123996	the uniform distribution
0.1303958224	a simple
0.1303874211	data sets from
0.1303483973	\ mathcal x
0.1302283960	used to
0.1302278544	approximate bayesian computation for
0.1300803679	gap between
0.1299658764	an introduction
0.1299231852	general state
0.1296719862	widely used in
0.1296227397	analysis methods
0.1293104779	the gaussian process
0.1292231405	applicable to
0.1291796621	to estimate
0.1290982779	the model evidence
0.1289418613	large class of
0.1289097156	the fly
0.1288591645	regression models with
0.1288467418	a finite mixture
0.1285571708	a multi
0.1283044353	a neural network
0.1282170104	alternative approach
0.1281327988	available online
0.1280313608	multi way
0.1279534761	other applications
0.1278533202	approaches based
0.1278143126	sampling scheme for
0.1275491473	introduction to
0.1274020854	deal with
0.1272338345	in spatial statistics
0.1271484448	an r package for
0.1270993778	\ tau
0.1270985070	two real data
0.1267731688	the sample space
0.1267398117	the joint distribution
0.1264674209	computational methods for
0.1263467903	the auxiliary variables
0.1263165474	empirical bayesian
0.1263061511	the minimization
0.1259709729	$ t
0.1257062530	as fast as
0.1255483197	consists in
0.1255288316	benefit from
0.1254873857	an experiment
0.1254455815	formed by
0.1253791243	$ \ ell_2
0.1252852882	the exact posterior
0.1251807855	carlo algorithm
0.1247954370	a by product
0.1247914774	posterior probability of
0.1247419629	this work proposes
0.1247012503	monte carlo algorithm for
0.1243095834	data models
0.1242813108	the particle filter
0.1241944192	three real data
0.1240213016	varying parameters
0.1239714128	a series
0.1237831593	the problem of
0.1235878931	a black box
0.1231302623	fidelity model
0.1231007251	a variety of
0.1229723871	regression model with
0.1229015742	correlation between
0.1226265949	formulated as
0.1224504619	at https
0.1222939000	random variables with
0.1221712000	$ \ beta
0.1221402849	along with
0.1220529225	an explicit
0.1219882048	to generate
0.1219531466	distances between
0.1219098771	e step
0.1219095923	a python
0.1218443046	for large datasets
0.1217821592	set of
0.1217462876	arise in many
0.1214953075	a tutorial
0.1214224748	$ \ mathbb r ^
0.1214167033	access to
0.1213399017	easy to use
0.1213259790	second step
0.1211581741	a scheme
0.1210907038	$ norms
0.1209642962	a comparative
0.1209388395	similarity between
0.1206935789	an overview
0.1205854187	aims to
0.1203943430	types of
0.1203203328	the joint posterior
0.1203056434	a series of
0.1202172367	a general purpose
0.1202047841	an inverse
0.1201023372	the boundary
0.1200852483	$ n_
0.1198227237	a number
0.1196240143	standard approach
0.1196134586	bayesian inference with
0.1194975941	based algorithm
0.1193499625	the group
0.1193469016	the tensor
0.1192875579	results show
0.1192591524	numerical results for
0.1191714308	to construct
0.1191151836	estimation of
0.1190808810	based approach to
0.1190235680	efficient algorithm for
0.1190080469	defined by
0.1190058316	sample performance
0.1189248875	methods for bayesian
0.1189200487	model based clustering and
0.1187413317	to determine
0.1187292564	_ \
0.1186789302	the context of
0.1185927484	suited to
0.1184719037	\ mathbb r ^
0.1183945501	in signal processing
0.1183324165	the representation
0.1181877610	the penalty
0.1179877991	the ising model
0.1179604968	implemented in
0.1179595166	refer to as
0.1178236009	the fast fourier
0.1175634108	non linear state
0.1175463927	approach based on
0.1175399342	= 2
0.1175171772	appearing in
0.1174923138	most relevant
0.1174046926	a novel
0.1173896757	more flexible
0.1173201712	bayesian parameter
0.1172719149	$ x_
0.1170179082	nearly optimal
0.1169860079	on synthetic data
0.1169056864	time to event data
0.1168799427	starting from
0.1168548309	in particular
0.1166684323	notion of
0.1165148792	well suited to
0.1164506661	the log posterior
0.1163945933	equipped with
0.1163442471	using simulated data
0.1162940729	for massive data
0.1161724213	builds on
0.1160826061	uncertainty quantification in
0.1160452662	a random variable
0.1159956955	of state space models
0.1159784191	draws from
0.1159607595	the resulting
0.1158542120	sequential monte carlo for
0.1158158175	d optimal
0.1156922664	2 d
0.1156654923	the wasserstein distance
0.1156243706	order to obtain
0.1156242812	for instance
0.1155558409	$ \ varepsilon
0.1155459186	the total variation
0.1154079397	the long term
0.1152667033	account for
0.1152297015	the posterior probability
0.1151849630	captured by
0.1151403367	a popular approach
0.1150893505	difference between
0.1150719396	n \ times
0.1145944375	based on gaussian
0.1144132760	treated as
0.1143912736	advantage over
0.1143441235	the current state
0.1143354111	but also
0.1142523481	a direct
0.1142507806	distance between
0.1142127424	log n
0.1141776318	cope with
0.1139764162	the past
0.1138368675	need to
0.1136543602	emerged as
0.1135112023	impact on
0.1134864545	wish to
0.1130627808	$ 10 ^
0.1128575676	the square root
0.1128439732	the step
0.1128065578	the binary
0.1128008045	methods based on
0.1127900159	the non gaussian
0.1127127760	sampling estimator
0.1126034782	illustrated by
0.1125169063	this context
0.1125135470	the cross entropy
0.1122970232	tutorial on
0.1121428077	designed to
0.1121366642	a set of
0.1120276431	general framework for
0.1119035200	mixing time
0.1118452096	sample from
0.1118447448	$ \ tau
0.1116942834	to evaluate
0.1116747541	algorithm based on
0.1116073197	statistical analysis of
0.1116053642	the other hand
0.1115877768	much smaller
0.1114792301	ability to
0.1113610484	the true model
0.1113560853	the asymptotic variance
0.1113391068	the computational burden
0.1112738493	the open source
0.1111167828	an additive
0.1110002179	for model based clustering
0.1108880285	gives rise to
0.1106985991	more realistic
0.1106671297	to noise ratio
0.1106068238	paper focuses on
0.1105459683	even if
0.1104940921	making use of
0.1104715292	this end
0.1104581218	association between
0.1104027226	efficient method for
0.1101011287	the full data
0.1100193904	range of
0.1100027480	indexed by
0.1097503041	bayesian inference in
0.1097013597	$ x_1
0.1095713819	a finite number
0.1095388727	proportional to
0.1094802571	a recently developed
0.1093708786	correlations between
0.1093312921	expected value of
0.1090426838	$ n ^ 1
0.1089949031	two stage
0.1089533280	$ means
0.1088760810	the bayesian evidence
0.1088578597	the confidence
0.1088458910	a highly efficient
0.1087725451	the posterior density
0.1085878152	the batch
0.1084381399	1 2
0.1083898529	the block
0.1081786113	expectations with respect to
0.1081577826	resort to
0.1079473567	supported by
0.1079244729	value decomposition
0.1078993009	more generally
0.1076638450	tens of
0.1075804127	handled by
0.1073164207	algorithms based on
0.1073152036	\ subset
0.1072130585	sampling methods for
0.1071151836	analysis of
0.1070662408	scale problems
0.1070366819	nearly linear
0.1069977376	superior performance of
0.1069285178	more precise
0.1068724134	away from
0.1068703589	does not depend
0.1068683486	a flexible class
0.1066960191	a proposal distribution
0.1065876468	the performance of
0.1065245810	more accurate than
0.1064735923	performance compared to
0.1063755268	the marginal distribution
0.1063638244	several examples
0.1063511998	guaranteed to
0.1063293225	guided by
0.1062446108	the so called
0.1061775722	the model selection
0.1060304669	model selection in
0.1059623746	the number of
0.1058465731	interaction between
0.1057146803	an application to
0.1057104599	the parallel
0.1055619645	much more
0.1055315487	the regression coefficients
0.1054731484	an easy to use
0.1049831074	relation between
0.1046550920	by introducing
0.1045773380	such as markov chain monte carlo
0.1042581532	a low rank approximation
0.1040684219	$ q
0.1039954902	the average
0.1036116114	a wide class
0.1036049381	optimal design of
0.1035490927	a gibbs sampler
0.1035192931	limit theorem for
0.1034809489	a first order
0.1033089230	introduced by
0.1032303268	and non convex
0.1031950149	ideas from
0.1030888037	in such cases
0.1030860377	dependencies between
0.1030453926	the standard approach
0.1030042554	inference for models
0.1029781497	more robust
0.1029115263	a dynamic
0.1029022645	the log density
0.1027342940	demonstrated on
0.1026201406	certain conditions
0.1025752650	the gp
0.1025616803	more complex
0.1024616369	run time
0.1023371979	two step
0.1023081603	the update
0.1023011411	subject to
0.1020383632	$ n =
0.1020205104	= \
0.1019642056	very large
0.1019503685	the range
0.1019444638	$ 10
0.1017894864	demonstrated by
0.1017064237	over time
0.1015971149	a proof
0.1015791202	a flexible framework
0.1015701707	the random effects
0.1014211872	the computational cost
0.1013975761	a real world
0.1009789065	mean estimation
0.1008517403	conditions under
0.1006423981	$ \ ell
0.1006329878	first stage
0.1005624676	the cdf
0.1004403456	$ stable
0.1004235350	a multiscale
0.1000488963	space model
0.0999347740	entropy method
0.0993152388	representation of
0.0993025524	$ v
0.0992247402	extended to
0.0991687676	presence of
0.0991676274	bounds on
0.0990981078	clustering via
0.0990919908	method for
0.0990255068	of fit tests
0.0989835414	$ 0,1 ^
0.0989541291	performance of
0.0987574779	the maximum likelihood estimates
0.0982900689	the gamma
0.0981687328	some cases
0.0981461600	to choose
0.0979861197	time complexity
0.0977538085	root mean
0.0977255632	approach to
0.0977189082	the viterbi
0.0976255094	aim at
0.0975727253	a hybrid
0.0975066839	$ \ omega
0.0974793649	proved to
0.0973983137	the stationary distribution
0.0972566958	statistical inference for
0.0972520679	in machine learning
0.0970743247	the stochastic gradient
0.0969958155	illustrated via
0.0969356198	carlo method for
0.0969275262	expected value
0.0968216120	tools for
0.0967680283	the multivariate normal
0.0967603842	the mixture components
0.0967192429	the unknown parameters
0.0965084958	general method
0.0963896792	demonstrated through
0.0963520941	the regression function
0.0962247402	relative to
0.0961538357	problem into
0.0960660489	an online
0.0960628917	an iterative
0.0960368803	an efficient implementation
0.0959600078	of interest
0.0959068156	to overcome
0.0956815302	x =
0.0956724940	an r
0.0955917404	the index
0.0955703408	evaluation of
0.0954844726	time points
0.0954710018	the presence of
0.0954581432	algorithms for
0.0954511411	converges to
0.0953151219	carlo approach
0.0951316133	\ chi
0.0951295739	algorithm for
0.0948090648	$ \ rho
0.0945824165	the unbiased
0.0944944384	to perform bayesian
0.0944355130	a large number of
0.0943562206	belong to
0.0942291900	computational efficiency of
0.0940722213	scale data
0.0940272377	determined by
0.0939849684	within gibbs
0.0939680745	an asymptotically
0.0939183085	too large
0.0937545002	the acceptance rate
0.0937387689	the design matrix
0.0936637893	posterior distributions of
0.0936508209	library for
0.0935326750	to simulate
0.0935238431	simulating from
0.0935101359	s &
0.0934113630	the bayes factor
0.0933436139	estimated by
0.0933256614	a maximum likelihood
0.0933175911	the hessian
0.0932645757	the rare event
0.0930977712	a wide variety of
0.0929977106	requires only
0.0929603160	the iteration
0.0927539231	the input space
0.0927433253	bayesian inference on
0.0926898177	needs to
0.0926563458	comparison between
0.0925786672	interactions between
0.0924706103	the r inla
0.0924621976	significantly better
0.0923559583	present paper
0.0923311070	likelihood estimation of
0.0923249639	the g
0.0920398669	carried out using
0.0919317196	p =
0.0919129027	computing time
0.0919116887	a statistical model
0.0918355641	a recently proposed
0.0918048763	popular method for
0.0917984471	other hand
0.0917836479	modeled as
0.0915758542	posterior mean
0.0914377790	comparison with
0.0912282785	the step size
0.0912061931	the proposal distribution
0.0911727408	duration of
0.0910006328	perform well
0.0909654673	the problem of estimating
0.0909587482	\ log n
0.0908293268	this approach
0.0907844329	a popular method
0.0907813304	much more efficient
0.0907246803	the choice
0.0906835365	suitable for
0.0906649895	the flow
0.0906099949	the dependence structure
0.0905848525	m =
0.0905345470	a set
0.0904912934	a general
0.0904575851	converge to
0.0904211711	an extension of
0.0904111628	by applying
0.0903423532	the integrated nested laplace
0.0903296307	advantage of
0.0902214813	models with
0.0901901187	used for model
0.0901421630	used to build
0.0901001381	a fast algorithm
0.0900564700	the entire
0.0900134023	lies in
0.0899938032	extracted from
0.0899764256	parameter inference in
0.0899363640	a sequence of
0.0899163137	estimator based on
0.0898906441	$ s
0.0898685683	uncertainty about
0.0898310270	the latent variables
0.0898133909	also discuss
0.0897580323	defined over
0.0897206513	equal to
0.0897126282	n 1
0.0896560560	a large scale
0.0896049543	$ regularization
0.0894003221	to avoid
0.0893996387	the recently proposed
0.0893940955	\ tilde o
0.0892627566	to predict
0.0891180848	computational complexity of
0.0887347917	clustering using
0.0886818356	uncertainty due
0.0886392222	selection using
0.0886102079	advantages of
0.0885733324	by leveraging
0.0885142328	approximation of
0.0885102484	classes of
0.0885063656	equivalent to
0.0884615474	to address
0.0884244443	well suited for
0.0883156164	finite number of
0.0882763453	a class of
0.0882338945	to select
0.0882147620	new insights
0.0882022229	$ \ bf
0.0880445549	a target distribution
0.0879301534	$ distribution
0.0879254805	hundreds of
0.0879151125	thousands of
0.0878420742	collection of
0.0875157110	to improve
0.0874562059	an overview of
0.0874464525	computational time
0.0874355141	by exploiting
0.0873454659	an estimator
0.0872843438	a new class of
0.0872692417	values of
0.0871884401	the weight
0.0870695606	a note on
0.0869808946	\ gamma
0.0869445299	sampling algorithms for
0.0869394042	$ \ mathbb r ^ d
0.0869305519	a novel method
0.0869041362	$ g
0.0868460452	asymptotic variance of
0.0868385197	aspects of
0.0867785018	the partition function
0.0865025530	n +
0.0864415349	areas such as
0.0864015757	for state space models
0.0864003221	to detect
0.0862972767	fraction of
0.0862749281	networks with
0.0862566592	\ |
0.0862488069	to assess
0.0861330735	tool for
0.0861113584	application to
0.0859122933	sampling algorithm for
0.0858618975	$ minimization
0.0858227334	propose to use
0.0857826568	l ^
0.0856946831	the normal
0.0856367754	a flexible
0.0854782412	each step
0.0854617152	different levels
0.0854383629	very challenging
0.0854005930	the impact
0.0853412765	$ statistics
0.0853059229	by incorporating
0.0852544240	not just
0.0852422090	very popular
0.0852391736	imposed on
0.0852101851	in simulation studies
0.0851541000	compared to other
0.0851205947	computational cost of
0.0850287804	$ \ sim
0.0849710414	$ \ hat p
0.0847037760	information from
0.0846543781	in spite of
0.0845938237	$ \ kappa
0.0845729720	framework for
0.0844546489	a novel algorithm
0.0844259607	illustrated with
0.0843925243	point algorithm
0.0843236489	in many applications
0.0843013535	linear models with
0.0842901824	a large set
0.0842796761	arises from
0.0842197898	r ^ n
0.0841900199	generated from
0.0841262336	the inverse problem
0.0841009305	the non convex
0.0840422704	seeks to
0.0840126081	$ 1
0.0839640487	m ^
0.0839474019	also discussed
0.0838852478	paid to
0.0838106577	adapted to
0.0837141402	a posterior distribution
0.0835461501	similar to
0.0835352311	collected from
0.0834646289	methods for
0.0833642464	the history
0.0833501408	mcmc algorithms for
0.0833453485	$ \ widetilde
0.0833422360	the conditional distribution
0.0833375321	sum of
0.0832957353	benefits from
0.0832380043	a real data
0.0830917299	inverse problems in
0.0830779309	such as markov chain monte
0.0830655943	significantly more
0.0829969142	t distribution
0.0829326670	approximated by
0.0828796202	with existing methods
0.0828649695	an important role in
0.0828367663	at hand
0.0825715332	role in
0.0825083688	the latter
0.0824638427	under weak
0.0823127932	the posterior
0.0821948512	defined on
0.0821351445	to sample from
0.0820037261	understanding of
0.0819121364	very high
0.0818746357	$ u
0.0818154485	an unknown
0.0817611423	provided by
0.0816445910	the training data
0.0816108844	a model based
0.0815174325	conditioned on
0.0815142621	a small number of
0.0814768625	choice of
0.0814493067	integration over
0.0814321525	\ times n
0.0812792168	used to assess
0.0811601676	very close
0.0811201195	integrated into
0.0810550782	| \
0.0810462981	extension of
0.0810460133	data set of
0.0809151156	a loss
0.0808439833	$ divergence
0.0807739224	the expectation
0.0807232904	novel mcmc
0.0807173299	taking into
0.0805765304	up to
0.0805326750	to build
0.0805160527	the effect
0.0804824536	to ensure
0.0804529380	the map
0.0804183993	k =
0.0803359244	a dirichlet
0.0803289910	assumed to
0.0801757233	degree of
0.0801589806	several orders of magnitude
0.0801430201	in many areas
0.0800945549	a mixture model
0.0800909029	more stable
0.0800240690	defined as
0.0799682786	a large class
0.0797032118	asymptotics of
0.0796729498	three examples
0.0796423778	evaluated through
0.0795465764	the e step
0.0794088732	a mixture
0.0793186917	to learn
0.0792700208	these issues
0.0792478275	metropolis adjusted
0.0792111551	2 ^
0.0791988081	corresponding to
0.0790457178	inference for
0.0790286771	to achieve
0.0790107059	the primal
0.0790080582	by combining
0.0788730422	the true
0.0788255502	inferred from
0.0787216782	two examples
0.0786499564	to facilitate
0.0786289731	a short
0.0785978158	the sum
0.0784619762	the relevance
0.0784391225	a common
0.0784371287	to identify
0.0783978690	modeled by
0.0783488736	best known
0.0783007035	$ penalty
0.0782646492	represented as
0.0781939850	a likelihood free
0.0781515520	a two stage
0.0780992647	inference based on
0.0780936043	presented here
0.0780348509	outperforms other
0.0780152432	$ 0
0.0780018516	this purpose
0.0779129112	designs with
0.0778224059	parameter of interest
0.0777400020	application of
0.0777389092	toolbox for
0.0776061518	c ^
0.0775963208	the computational effort
0.0775485003	also provide
0.0775060254	perform better
0.0774986241	exploration of
0.0773904790	the missing data
0.0773359324	approximation with
0.0773354537	$ \ gamma
0.0773096433	\ widetilde \ mathcal o
0.0772325568	\ in \ mathbb r
0.0770988431	the approximation error
0.0770002395	amount of
0.0768370692	the disease
0.0767991919	such processes
0.0767819502	a natural
0.0767457443	partial least
0.0767403435	the maximum likelihood estimation
0.0766806740	on simulated and real
0.0765673778	divergence between
0.0765481883	different types of
0.0765478185	s ^
0.0765187215	two or more
0.0764252724	a stable
0.0763748782	many applications
0.0763300501	discrepancy between
0.0762262646	a powerful
0.0762203489	a family
0.0761633758	$ \ tilde
0.0761428609	the first order
0.0761029378	the problem of computing
0.0760923329	the em
0.0760763905	not straightforward
0.0760499564	to calculate
0.0760197125	parameters of
0.0760119432	the infinite dimensional
0.0759517959	then apply
0.0758897732	used to generate
0.0758801972	used to determine
0.0758286060	allowed to
0.0756950020	estimates of
0.0756941941	an alternating
0.0756440039	the specification
0.0756115111	for parameter estimation
0.0755956202	of missing values
0.0754749911	m \
0.0754525478	a key
0.0754131467	converges at
0.0753836762	$ value
0.0753399675	the finite sample
0.0753166508	sums of
0.0752462607	the tree
0.0752170027	performs better
0.0752146584	the package
0.0751258149	to infer
0.0750934621	1 +
0.0750738185	degrees of
0.0747834264	minimizer of
0.0747120921	inference in non
0.0746636138	full conditional
0.0745938619	this method
0.0745625235	the gaussian
0.0745557672	widely used for
0.0745314599	appeared in
0.0745275137	implementations of
0.0744227978	modelled by
0.0743958078	a particle
0.0742224520	mcmc algorithm for
0.0741955244	the ensemble
0.0741635645	not always
0.0741522229	$ \ hat
0.0741282005	model selection for
0.0739681257	by utilizing
0.0739255542	using sequential monte
0.0738355670	to implement
0.0737974760	very simple
0.0737851293	only requires
0.0737851293	across multiple
0.0737486217	$ \ sqrt
0.0737076670	measured by
0.0736485411	the temperature
0.0735773532	this tutorial
0.0735749148	an original
0.0735094261	package provides
0.0734030299	improvement over
0.0733911485	methods such as
0.0733046663	to fit
0.0731968914	a survey
0.0730949879	under regularity
0.0730947205	order to make
0.0730441524	the quality
0.0729946144	lower than
0.0729480625	obtained via
0.0729391789	the low rank
0.0729368089	quadratically with
0.0729280909	a byproduct
0.0728643773	dependence between
0.0728446277	experimental design for
0.0728343071	description of
0.0728079571	a two step
0.0728073424	this question
0.0727409617	$ z
0.0726669706	implementation of
0.0726540495	in many fields
0.0726114240	and computationally efficient
0.0725992085	a semi
0.0725922090	very low
0.0725664163	l ^ 2
0.0724305104	a one dimensional
0.0723407983	this result
0.0723037352	article provides
0.0722886567	existing methods for
0.0722694080	expressions for
0.0722403442	an approximate
0.0720974703	the t
0.0720707521	parameters of interest
0.0720127893	different scenarios
0.0720003442	nature of
0.0719812905	large set of
0.0718934032	by presenting
0.0718204625	$ \ sigma
0.0718014827	to deal with
0.0716837320	restrictions on
0.0716579456	to work with
0.0716285355	a tool
0.0716188641	the critical
0.0714896749	takes into
0.0714693621	many scientific
0.0714619251	strategies for
0.0714273677	important role in
0.0713900257	very small
0.0713279416	$ \ texttt
0.0713275626	very flexible
0.0712852153	agreement with
0.0712632735	distribution of interest
0.0712550893	the number of particles
0.0712393883	placed on
0.0711948057	proposed by
0.0711847162	most useful
0.0711580038	the power
0.0710748767	absence of
0.0710685419	a network
0.0710653049	in most cases
0.0710449462	a comparison
0.0710188627	calculation of
0.0709497068	parameter estimation of
0.0709310433	an improved
0.0709026402	\ beta =
0.0708939098	by replacing
0.0708825355	the case of
0.0708690374	simple yet
0.0708463591	through extensive
0.0708457268	a comprehensive
0.0707621514	obtained through
0.0707057987	increase in
0.0706901669	long time
0.0706532883	as well
0.0706290846	accuracy than
0.0706283279	the article
0.0706189756	distribution of
0.0705867600	the complete
0.0705402704	a modified
0.0705081450	the volatility
0.0705005470	p \
0.0704564743	often require
0.0703078168	bounds for
0.0703077164	new mcmc
0.0702145061	the reader
0.0702022230	a parallel
0.0701926248	the beta
0.0701553749	arising in
0.0700900064	the number of observations
0.0700643466	the main
0.0700448789	comparison of
0.0700233962	the r
0.0699654609	estimation using
0.0699388967	to understand
0.0699327064	the number
0.0698397554	regression models for
0.0698285543	a sequence
0.0697849298	the model
0.0697078076	arise from
0.0696688123	the simulated data
0.0696585360	$ \ delta
0.0696467734	the interaction
0.0696221635	consist of
0.0696217773	to use
0.0696122361	covariance matrix in
0.0695647596	by proposing
0.0695522448	interpretation of
0.0695219519	come from
0.0695207178	sets of
0.0694758944	$ \ mathbb
0.0694232123	an optimal
0.0694198907	build on
0.0693150427	^ n \
0.0693150099	full posterior
0.0691748037	used for
0.0690657983	to handle
0.0690425708	constraints on
0.0690163911	bayesian computation for
0.0690155659	estimation via
0.0689697896	the enkf
0.0689228735	the non linear
0.0689087341	by employing
0.0688620063	a number of
0.0688221397	parameter value
0.0687019028	for model selection
0.0686615601	the permutation
0.0685806104	constraint on
0.0685800349	intractability of
0.0685165708	each observation
0.0684665081	the state
0.0684645487	conditioning on
0.0684544598	the target
0.0684317778	a generalization
0.0683289418	recent work on
0.0682758348	each cluster
0.0681679372	$ ^ 2
0.0681086896	the strong
0.0680856525	time scale
0.0680667405	the loss function
0.0680405676	two level
0.0679566967	1 3
0.0679129182	result in
0.0678343939	the first step
0.0677884362	a regression model
0.0677462232	also apply
0.0677354206	by extending
0.0677198713	sampled from
0.0676223238	models under
0.0676162755	more specifically
0.0676020167	an essential
0.0675827591	fail to
0.0675258348	also suggest
0.0675097503	data from
0.0674907336	$ ^
0.0674903560	this gap
0.0674017227	performance over
0.0673512592	available software
0.0673333135	more reliable
0.0672688190	experiments show
0.0672332239	the sample covariance
0.0671748037	used in
0.0671265780	approximation based on
0.0670850399	in contrast to
0.0670783952	inference about
0.0670477305	by adding
0.0669473928	do so
0.0669249415	estimated from
0.0668370839	both in terms
0.0668334647	both theoretically
0.0668149743	a pseudo marginal
0.0668146844	crucially on
0.0667290909	reduction in
0.0666143706	used to compute
0.0665544378	in order to obtain
0.0665355548	$ x
0.0663334848	the likelihood
0.0663168178	on github
0.0662655221	model for
0.0661735074	the fact
0.0661682697	the incremental
0.0659581495	family of
0.0659470575	modeling with
0.0658877893	each group
0.0657716149	a form
0.0657667752	posterior distribution of
0.0656942336	approach for
0.0656766249	a lot of
0.0656747180	the number of samples
0.0655865322	several orders
0.0655255246	a random walk
0.0654872516	also propose
0.0653860459	mixture of
0.0653684828	usefulness of
0.0653004674	very general
0.0652290909	decomposition of
0.0652207178	computation of
0.0651974240	$ y
0.0651720415	combinations of
0.0651553858	an algorithm
0.0650253230	results from
0.0649847546	\ rightarrow \
0.0649763809	new estimators
0.0649542291	experiments on
0.0649408895	applies to
0.0648952847	large p
0.0648200786	lines of
0.0647718217	this reason
0.0647588008	better performance
0.0646339416	$ 2
0.0645988555	models for
0.0645784930	an initial
0.0644384078	a non parametric
0.0642987382	benefits of
0.0642098902	a new markov
0.0641721477	variable selection for
0.0640948088	computer models
0.0640540512	approximation to
0.0639899534	the efficiency of
0.0639180014	to account
0.0638936169	an equivalent
0.0638835727	an integral
0.0637738081	part of
0.0637555364	also provided
0.0637552997	while still
0.0636376356	the metropolis hastings algorithm
0.0635100154	the literature
0.0634353150	two components
0.0634045965	approaches based on
0.0634030575	inference on
0.0634019835	to produce
0.0633866750	the accuracy
0.0633765188	used to construct
0.0633656918	tailored to
0.0633466053	than previous
0.0633359878	the second stage
0.0632542213	independent interest
0.0632207178	convergence of
0.0631840962	the integrated nested
0.0631633559	assessment of
0.0631129429	merits of
0.0631038558	this setting
0.0630965235	the number of clusters
0.0629731266	a range
0.0629646153	this document
0.0628043033	implications for
0.0627914847	collected by
0.0627849298	the algorithm
0.0627383151	the number of variables
0.0627086818	to extend
0.0626847831	estimation based on
0.0626073173	the intensity
0.0625337457	the hierarchy
0.0625004363	efficient than
0.0624847674	in turn
0.0624181665	moments of
0.0623592664	families of
0.0623141088	more effective
0.0623049558	an attractive
0.0623046442	a major
0.0623024763	lack of
0.0622732792	$ s \
0.0621393814	this study
0.0620834759	very fast
0.0620815897	an arbitrary
0.0620767952	to parallelize
0.0620765549	the present work
0.0620550284	a generic
0.0620406144	performed using
0.0620365540	millions of
0.0620317218	eigenvalues of
0.0620004901	q \
0.0619899534	the choice of
0.0619793333	expense of
0.0619534930	an extensive
0.0619515965	the method
0.0619225569	method uses
0.0619217858	model based on
0.0619111183	a small
0.0618962639	this phenomenon
0.0618744725	a state space
0.0618737525	this case
0.0617972893	an introduction to
0.0617841130	a few
0.0617027236	various examples
0.0616538752	two types
0.0615927466	a genome
0.0614593724	to find
0.0614334848	the optimal
0.0613116316	comes from
0.0612753065	in fact
0.0612725484	the construction
0.0612432250	techniques such as
0.0612122026	probabilities of
0.0612101053	majority of
0.0611772775	allowing for
0.0611394997	designed for
0.0610233862	perform well in
0.0610097479	the mle
0.0610044809	the key
0.0609919438	the number of parameters
0.0609745494	ensembles of
0.0609719251	the covariance function
0.0609573058	simulate from
0.0609501075	the difficulty
0.0609077611	work presents
0.0609028604	suited for
0.0609024553	subset of
0.0608901673	by deriving
0.0608753970	solved by
0.0608187539	an adaptation
0.0607635248	solved using
0.0607357601	compare different
0.0607356424	simulation from
0.0606266277	many popular
0.0606159191	described by
0.0606130994	light on
0.0606059572	an automated
0.0605820077	by integrating
0.0605463264	seek to
0.0605340106	this framework
0.0604861296	also show
0.0603825355	the quality of
0.0603810393	a finite
0.0602404489	to recover
0.0602034664	the summary statistics
0.0601996123	the help of
0.0601935980	the theoretical properties
0.0601823710	change of
0.0601224992	not exist
0.0600948056	tested on
0.0600936516	only if
0.0600325355	the effectiveness of
0.0600323750	t distributions
0.0600320245	n \
0.0600186293	tails of
0.0599899534	the accuracy of
0.0599701254	the usual
0.0599199028	new methodology
0.0598501384	the same time
0.0598218387	an emulator
0.0597815337	comparable to
0.0597260349	under assumptions
0.0596976625	the time varying
0.0596734263	design with
0.0595716614	the classical
0.0594535341	function on
0.0594407486	$ |
0.0593878675	\ varepsilon ^
0.0592610526	constructed by
0.0592202683	observed at
0.0591898994	to inform
0.0591663661	to date
0.0591612722	allows for
0.0591224660	the output
0.0591165660	$ 0,1
0.0591145197	a discrete
0.0590905603	at once
0.0590866530	efficiency of
0.0590862583	a scalar
0.0590805378	$ k =
0.0590716514	carlo algorithms for
0.0590636154	many areas
0.0590544367	more efficiently
0.0589922856	two main
0.0589735218	by using
0.0588956247	such models
0.0588838528	knowledge of
0.0588150142	evaluations of
0.0587831328	an upper bound on
0.0587749578	together with
0.0587591694	linked to
0.0586956628	$ regularized
0.0586432673	a decision
0.0586254082	guarantees on
0.0585880367	building on
0.0585541348	for detecting
0.0585383488	to illustrate
0.0585359954	the problem
0.0585257184	approach uses
0.0585230722	a benchmark
0.0585226299	also considered
0.0583948129	a practical
0.0583639578	different types
0.0583309431	adapt to
0.0583106492	fields such as
0.0582760744	hard to
0.0581764594	a computational cost
0.0581378980	the median
0.0580908145	effect on
0.0580895897	portion of
0.0579930334	changes in
0.0579697531	to examine
0.0579603015	the proximal
0.0579245430	a large
0.0578859906	computationally more
0.0578687382	two way
0.0578396204	an analysis
0.0577961271	to create
0.0577641033	algorithm for sampling from
0.0577270869	a linear combination
0.0576702526	a suitable
0.0576585194	performs well in
0.0576437562	an auxiliary
0.0576095853	other popular
0.0576000217	the variability
0.0575801022	this paper deals with
0.0575220724	the second order
0.0575109339	by maximizing
0.0575014600	an open
0.0574829704	rate at
0.0574664157	by providing
0.0574507350	p values for
0.0574410354	inference via
0.0574408478	consequences of
0.0574273482	r ^ d
0.0574134629	likelihood estimates of
0.0573603057	the ising
0.0573104917	a gaussian
0.0572831312	\ hat \
0.0572365342	the well known
0.0572014451	linearly with
0.0571841358	the marginal
0.0570828588	an improvement
0.0570543714	for example
0.0570159452	elements of
0.0569745053	relation to
0.0569239744	limitations of
0.0569218625	d ^
0.0569191481	searching for
0.0568985202	a review
0.0568790758	for survival
0.0568366773	much better
0.0567961074	a class
0.0566928173	far more
0.0566769821	this idea
0.0566681921	characterization of
0.0566591237	to tackle
0.0565338985	median of
0.0565315706	this quantity
0.0565235159	neighborhood of
0.0564999415	considered as
0.0564155118	a new markov chain
0.0563821039	to compare
0.0563419731	a principled
0.0562872656	realizations of
0.0562521602	and easy to implement
0.0562163161	results on
0.0562016659	the aim of
0.0560823642	in place
0.0560785759	several advantages
0.0560533844	in \ cite
0.0560160663	model with
0.0560159078	importance sampling for
0.0560066928	a copula
0.0559136186	required for
0.0558717265	by product
0.0558471629	a bivariate
0.0558238527	+ \
0.0558153103	conditional on
0.0557918705	show empirically
0.0557716602	to noise
0.0557074812	bound on
0.0557005062	$ 1 \
0.0556394997	formula for
0.0556078666	by developing
0.0556028183	regions of
0.0555562223	off between
0.0554635972	estimated using
0.0553955161	at most
0.0553766332	method to
0.0553355333	computed by
0.0553351452	regression with
0.0553044072	fails to
0.0552496595	with missing
0.0552412390	a lot
0.0552255178	to write
0.0552243826	formulation of
0.0551869475	one way to
0.0551423948	a proximal
0.0551127561	priors on
0.0550998377	spectrum of
0.0550822452	both synthetic
0.0550581561	an extension
0.0550498952	an additional
0.0550317218	functionals of
0.0550075768	^ p
0.0549895263	by comparing
0.0549445772	generalization of
0.0549309320	an interesting
0.0549066867	information between
0.0548793956	an infinite
0.0548702519	\ epsilon ^
0.0548656447	the location
0.0548478970	used to obtain
0.0547727716	strategy for
0.0547720403	an issue
0.0547664467	also develop
0.0547227232	to derive
0.0546646239	a popular
0.0546309823	software for
0.0546141350	clustering with
0.0545245663	also introduce
0.0545152170	scheme for
0.0544793519	to meet
0.0544176960	the autocorrelation
0.0542809810	pairs of
0.0542794096	aim to
0.0542727656	alternative to
0.0542591694	aspect of
0.0542005426	carlo algorithm for
0.0541965005	technique for
0.0541629015	across different
0.0541626070	studies show
0.0541526037	limitation of
0.0541463247	new techniques
0.0541232251	in doing so
0.0540958028	ratio of
0.0540853727	the trace
0.0540767452	stream of
0.0540321833	very efficient
0.0540085346	by minimizing
0.0539784605	a threshold
0.0539443888	working with
0.0539358574	an image
0.0539066040	such problems
0.0538908144	a result
0.0538852219	the l1
0.0538786153	the prior
0.0538754797	approximations of
0.0538754797	uncertainty in
0.0538595926	competitive with
0.0538419539	on toy
0.0538399128	rise to
0.0538320015	referred to
0.0538258587	the new algorithm
0.0538215035	also called
0.0538186267	also demonstrate
0.0537643187	for estimating
0.0537466102	the presence of outliers
0.0537041848	the most commonly
0.0537014233	the method for
0.0536493396	a broad range of
0.0536163511	many modern
0.0535405930	the lack
0.0535385959	appears to
0.0535325355	a family of
0.0535298338	developed for
0.0535029095	very close to
0.0534866530	form of
0.0534491042	exploited to
0.0534108659	evaluated on
0.0533688667	tools from
0.0533422874	+ +
0.0533062982	first introduce
0.0532816303	connection with
0.0532474938	mixing time of
0.0532426989	the ultimate
0.0532251945	both simulated and real
0.0532190937	a novel approach
0.0531975625	efficacy of
0.0531215217	ease of
0.0531162014	this situation
0.0530545329	lot of
0.0530518404	under uncertainty
0.0530492021	a range of
0.0530251075	the inclusion
0.0529981549	procedures for
0.0529738309	taken into
0.0529685486	assigned to
0.0529664158	by showing
0.0529534086	a convex
0.0529064673	type of
0.0529064673	complexity of
0.0529058718	combination of
0.0528360677	a widely used
0.0528313768	also shown
0.0528258295	1 n
0.0527841130	instead of
0.0527808847	\ &
0.0527671285	a new method for
0.0527329798	through simulation
0.0526979826	the effect of
0.0526890494	the projection
0.0526877730	the score
0.0526766201	the variance of
0.0526443632	three real
0.0526341694	intersection of
0.0526312828	demonstrated using
0.0526073173	the oracle
0.0525877183	constructed from
0.0525354539	also derive
0.0525080559	products of
0.0525035763	limits of
0.0524997870	designs for
0.0524997086	connections with
0.0524795122	a non linear
0.0524493515	posterior distribution for
0.0523757556	$ p =
0.0523730167	structure of
0.0523494044	used to approximate
0.0523142723	implemented using
0.0522572877	the particle gibbs
0.0521097578	observations from
0.0520959501	obtained using
0.0520874763	by constructing
0.0520713703	via simulation
0.0520513160	the dimension of
0.0520439438	scale well
0.0520371324	size of
0.0520313160	a function of
0.0520173446	view of
0.0520069057	a nonparametric
0.0519956518	the presence
0.0519695980	to approximate
0.0519469231	an objective
0.0519468966	to circumvent
0.0519437397	derived using
0.0519318522	the hyper
0.0519225023	other approaches
0.0519072178	also presented
0.0518754797	independent of
0.0517887195	a hierarchical
0.0517424370	algorithm to sample from
0.0517305953	the computational complexity
0.0516931986	new framework
0.0516819176	adaptation of
0.0516637324	the celebrated
0.0516620852	the goal of
0.0516524851	metropolis within
0.0516163188	measure on
0.0516154772	subsets of
0.0515752159	directly from
0.0515334115	a time series
0.0515300708	obtained with
0.0515271832	to analyze
0.0514533782	the log
0.0514163466	problem of sampling from
0.0513584565	the case
0.0513300526	applications such as
0.0512928594	this assumption
0.0512637275	the robustness
0.0512317503	used in practice
0.0512133111	performed by
0.0512064585	$ x \
0.0512032188	in many practical
0.0511673939	achieved using
0.0511353924	also prove
0.0510944854	parallelization of
0.0510761771	required by
0.0510492010	for computing
0.0510443686	p ^
0.0510431904	reduced by
0.0510187906	distribution over
0.0509389327	the conditional
0.0509364021	the sense
0.0509280534	limited by
0.0509020437	results in
0.0508737858	utilized to
0.0507306999	determination of
0.0506939826	s \
0.0506848826	the adaptation
0.0506647250	superiority of
0.0506621503	a very large
0.0506024019	a new algorithm
0.0505992057	such systems
0.0505878176	to alleviate
0.0505866334	in advance
0.0505130616	to tune
0.0505043307	proof of
0.0504784125	the applicability
0.0504691283	2 +
0.0503904381	a product
0.0503717058	by analyzing
0.0503597136	conditions for
0.0502585861	this class
0.0502501444	availability of
0.0501809679	new class
0.0501629866	to maximize
0.0501174483	recovery of
0.0500805221	estimator of
0.0500417254	favorably with
0.0500300028	features of
0.0500000270	proven to
0.0499732203	calibration of
0.0499690245	forecasts of
0.0499546559	0 \
0.0499287473	an experimental
0.0498886355	of independent interest
0.0498672607	an analytical
0.0498634743	also illustrate
0.0498633983	the current
0.0498493421	the state of
0.0498193752	made available
0.0497879515	through simulations
0.0497829854	sets from
0.0497676916	the amount of
0.0497311491	the integrated
0.0497206171	then propose
0.0497097124	for optimizing
0.0496938521	an integrated
0.0496627345	the proposal
0.0496469831	the purpose of
0.0496319644	to mitigate
0.0495868558	algorithm uses
0.0495855819	most commonly
0.0495802641	similarly to
0.0495727337	conclude with
0.0495683356	sequence of
0.0495611669	the first stage
0.0495322713	to discover
0.0495146501	this property
0.0494738357	a stochastic
0.0494519949	this challenge
0.0494220458	new methods
0.0494089494	seen as
0.0493488104	the adjusted
0.0493439171	the need for
0.0493392448	advances in
0.0493283313	adapts to
0.0492974203	performed on
0.0492757351	by construction
0.0491693938	a well known
0.0491692947	models such as
0.0491468347	new algorithms
0.0491360526	dependent on
0.0491313767	an application
0.0491107474	multiple time
0.0490648629	a specific
0.0490639981	to reveal
0.0490578757	to carry
0.0490473205	the asymptotic
0.0490280584	two alternative
0.0490267452	strength of
0.0490178379	used as
0.0490092315	by solving
0.0490068535	a pair
0.0489814371	the method in
0.0489678211	incorporation of
0.0489500986	the asymptotic behavior of
0.0489444878	an intractable
0.0488509083	combination with
0.0488291713	computed using
0.0487874220	the user
0.0487603177	aim of
0.0486751690	correlation of
0.0486729154	the amount
0.0486630712	also present
0.0486570113	used to improve
0.0486428330	under appropriate
0.0486421514	the horseshoe
0.0486273890	to investigate
0.0486229115	to guide
0.0485960734	a strong
0.0485953172	identification of
0.0485496872	an observation
0.0485409198	the special case
0.0485369788	a logistic regression
0.0485306612	expectations with
0.0485159278	to distinguish
0.0485145637	used to perform
0.0485095926	comparisons with
0.0484549392	variability of
0.0484100922	proportion of
0.0484059131	known as
0.0483732069	problems with
0.0483728193	derived by
0.0483272014	to treat
0.0482854539	over existing
0.0482674351	rules for
0.0482670035	the exact
0.0482379990	a real data example
0.0482373607	methodology for
0.0482076315	design for
0.0481860370	to incorporate
0.0481810394	for solving
0.0481671412	the correct
0.0481287643	a very small
0.0481159985	most important
0.0481070906	to extract
0.0481059515	adopted to
0.0480923939	evaluated by
0.0480867981	by implementing
0.0480446715	written in
0.0480399592	encountered in
0.0480313400	minimization of
0.0480012024	$ e
0.0479820709	experiments with
0.0479598606	to develop
0.0479587330	for simulating
0.0478949013	limited to
0.0478854956	to explore
0.0478828982	improved by
0.0478717433	to verify
0.0478520760	rank of
0.0478280823	a multivariate normal
0.0477782395	by allowing
0.0477578479	the performance
0.0477473410	first step
0.0477469770	assumptions on
0.0477358836	the former
0.0477130578	aiming to
0.0477030753	propose here
0.0476948586	suite of
0.0476836586	the dimension
0.0476819176	specification of
0.0476675027	member of
0.0476054142	note on
0.0475913326	implemented by
0.0475634804	a detailed
0.0475569831	a collection of
0.0474872011	the convergence rate
0.0474857676	many problems
0.0474148473	required to
0.0474126430	the first
0.0473970406	^ \
0.0473907255	a linear regression
0.0473892465	an example
0.0473635615	a local
0.0473500270	guidelines for
0.0473427822	robust to
0.0473424281	this task
0.0473411638	widely used to
0.0473143459	this formulation
0.0473105025	a sphere
0.0472878371	the cumulative distribution
0.0472480463	by identifying
0.0472418732	to enhance
0.0472098459	far from
0.0471798679	simulations show
0.0471662519	in addition to
0.0471639025	$ n ^
0.0471413775	the second
0.0471130029	the actual
0.0471079113	uncertainties in
0.0470497468	selected by
0.0470414150	$ b
0.0470371324	measure of
0.0470363543	developed by
0.0470272239	a topic
0.0470219271	$ \ mathcal s
0.0470204491	a bias
0.0470028156	an approach
0.0469549500	$ r
0.0469142341	the influence
0.0469071613	this difficulty
0.0469026037	capability of
0.0468656976	the rest of
0.0468303103	literature on
0.0468024282	conditions on
0.0467630100	rule for
0.0467269850	three different
0.0467195632	r software
0.0466897712	t \
0.0466655994	the solution
0.0465849952	to remove
0.0464861508	the probability density
0.0464678211	kind of
0.0464596845	the development
0.0463891135	an unbiased
0.0463864387	value of
0.0463386377	a deep
0.0463291077	filter with
0.0463282597	for practitioners
0.0463273272	with respect
0.0462802199	the tail
0.0462589345	the corresponding
0.0462572508	an automatic
0.0462471982	several orders of
0.0462093725	this technique
0.0462014726	i =
0.0461869853	effectiveness of
0.0461829337	well as for
0.0461783082	this estimator
0.0461624570	a regular
0.0461501633	the curse of dimensionality
0.0461369352	by running
0.0461004287	also compare
0.0460900050	an exponential
0.0460582492	function of
0.0460506543	in contrast
0.0460414150	$ c
0.0460313160	a mixture of
0.0460286745	used to develop
0.0460003575	the concept
0.0459932245	fit to
0.0459883846	the basis of
0.0459785174	the theoretical results
0.0459673939	works by
0.0459664547	extensions of
0.0459436350	this area
0.0459305913	other state of
0.0459183438	to prevent
0.0459068890	a new method
0.0458937440	to provide
0.0458925027	demonstration of
0.0458658214	construction of
0.0458517096	behavior of
0.0458230843	as well as on
0.0458149380	an efficient implementation of
0.0458136979	a general framework for
0.0457578853	implications of
0.0457444425	$ \ |
0.0457358257	of magnitude
0.0457228960	^ 2 \
0.0456996350	of normals
0.0456831358	a big
0.0456722788	to match
0.0456442282	basis of
0.0455926488	discretization of
0.0455737790	a robust
0.0455522247	this review
0.0455133646	the standard
0.0455049989	estimation with
0.0454937439	ubiquitous in
0.0454735648	case of
0.0454589363	to calibrate
0.0454248091	a response
0.0454052261	the lasso
0.0454045230	drawback of
0.0454042700	for analysing
0.0453727282	product of
0.0453502270	involved in
0.0453377371	approach allows
0.0453024482	discussion of
0.0452820179	the new method
0.0452790371	needed to
0.0452720410	to accommodate
0.0452246845	to optimize
0.0451683143	used to compare
0.0451218034	implemented as
0.0451047562	the number of data
0.0450745694	variant of
0.0450519589	contained in
0.0450095765	$ time
0.0449927121	the full conditional
0.0449651421	resulting from
0.0449621333	time point
0.0449489810	derivation of
0.0448762700	n ^ 2 \
0.0448622656	overview of
0.0448464446	than existing
0.0448462744	inference in
0.0448401826	layers of
0.0448100922	amounts of
0.0446843812	the most common
0.0446668937	holds for
0.0446482508	a large class of
0.0446408556	a semiparametric
0.0445491806	most existing
0.0445018300	results for
0.0444969061	o \
0.0444786722	many statistical
0.0444361593	to accelerate
0.0444080995	to reach
0.0443940580	this procedure
0.0443670959	\ beta \
0.0443670959	\ alpha \
0.0443384912	failure time
0.0442561168	restricted to
0.0442547722	the first method
0.0442146151	most popular
0.0441582996	to draw
0.0441516905	success in
0.0441386665	different models
0.0441130029	the null
0.0441124059	to minimize
0.0441040484	to account for
0.0440870028	a variety
0.0440642851	by taking
0.0440095664	to quantify
0.0439998643	new type of
0.0439989810	generalizations of
0.0439928028	inference with
0.0439877740	the influence of
0.0439823451	decay of
0.0439502347	terms of
0.0439295611	each other
0.0438740026	the size of
0.0438401826	investigation of
0.0438307111	the sphere
0.0438120852	the utility of
0.0437743756	the aforementioned
0.0437691538	the concept of
0.0437229009	the number of iterations
0.0437191964	solution to
0.0437124376	often used
0.0436531206	the analysis of
0.0436508872	an appropriate
0.0436505507	the most important
0.0435651219	to combine
0.0434567097	$ \ mathbb r
0.0434157636	formulas for
0.0433350262	an asymptotic
0.0433115642	for handling
0.0433100922	members of
0.0433100786	body of
0.0433084578	the system
0.0432874665	to enable
0.0432841639	rate of
0.0432672214	$ l
0.0432573696	most widely used
0.0432429932	under certain
0.0432396999	to guarantee
0.0432286777	to utilize
0.0431911933	by making
0.0431807257	well as
0.0431760303	to infinity
0.0431406944	to apply
0.0431295645	the simulator
0.0431258075	a consequence
0.0431054860	a model selection
0.0430784753	connection to
0.0429593626	the vertices
0.0429504568	consistent with
0.0429330473	present here
0.0429302271	c + + and
0.0429184119	formulae for
0.0428913892	interpretability of
0.0428740026	the cost of
0.0428718906	ideal for
0.0428655585	$ p \
0.0428094170	as well as for
0.0427815578	novel approach
0.0427392112	an approximation
0.0427229962	the input
0.0427197081	in terms of accuracy
0.0427185530	most widely
0.0426519403	an easy
0.0426146733	source of
0.0425982979	this family
0.0425926488	derivatives of
0.0425654094	most accurate
0.0425392051	the observed
0.0425345116	an independent
0.0425124977	to establish
0.0424813155	most cases
0.0424813155	most common
0.0424728499	possibility of
0.0423494600	paper provides
0.0423213192	crucial for
0.0423140026	the sum of
0.0423034670	to integrate
0.0422858205	a new family of
0.0422594706	a combination
0.0422515452	composed of
0.0422439181	among other
0.0422407336	help to
0.0422327165	accuracy of
0.0422234591	structure between
0.0422207802	introduce two
0.0421957270	the context
0.0421856343	a low
0.0421408352	the impact of
0.0421362410	to conduct
0.0420915295	a universal
0.0420805221	problem in
0.0420718162	reconstruction of
0.0420371324	solution of
0.0420303215	an estimate
0.0420082426	a special
0.0419886114	infeasible for
0.0419729709	stored in
0.0419529194	an easy to
0.0419371148	problems such as
0.0418991430	likelihood estimation for
0.0418588357	this research
0.0418561351	in terms
0.0418484878	an active
0.0418349716	a method
0.0418005125	distribution on
0.0417440522	a numerical example
0.0417326523	design of
0.0416732264	new method
0.0416676390	a spectral
0.0416242775	functional time
0.0415935751	a piecewise
0.0415881744	levels of
0.0415751167	to make
0.0415671911	the number of components
0.0415196715	arise in
0.0415095398	the aim
0.0414532512	the respective
0.0414428911	an object
0.0414012019	for quantifying
0.0413887975	coupled with
0.0413546130	this type of
0.0413502270	included in
0.0412998323	to summarize
0.0412974487	\ frac \
0.0412940810	to sample
0.0412122706	tests for
0.0411989810	occurrence of
0.0411763036	impact of
0.0411528853	a hierarchy
0.0411371324	space of
0.0410780237	full data
0.0410501102	a smooth
0.0410303852	a large set of
0.0410286496	the current state of
0.0410185343	taken from
0.0409941039	as long
0.0409774449	the estimation of
0.0409420659	a promising
0.0409283678	long as
0.0409012980	the definition
0.0408952212	the ground
0.0408906562	the difference
0.0408671034	to check
0.0408303150	the problem of sampling
0.0408283263	law of
0.0407695322	existence of
0.0407630100	variability in
0.0407210843	extension to
0.0407156874	the \ emph
0.0407148557	propagation of
0.0406999068	the integrand
0.0406704807	$ k \
0.0406405344	commonly used in
0.0406255096	benefit of
0.0405984553	to capture
0.0405615026	the solution of
0.0405531206	the distribution of
0.0405418300	problem with
0.0405327698	a simulation
0.0405196715	performances of
0.0405183312	a multivariate
0.0404896185	differences in
0.0404800968	the primary
0.0404643469	k ^
0.0404513105	sampler for
0.0404477771	the computation of
0.0404218640	any type
0.0404074450	a collection
0.0404071151	an implementation
0.0403953361	amount of data
0.0403140026	the probability of
0.0403103304	to adapt
0.0403031706	set to
0.0402577911	a toy
0.0402363543	simulations from
0.0402158013	an upper
0.0401964731	a real
0.0401949992	the initial
0.0401874118	a deterministic
0.0401639712	by performing
0.0401468863	d \
0.0401265513	of thousands of
0.0401188514	the false
0.0401029137	the most widely
0.0400924016	many fields
0.0400818138	to hold
0.0400187160	topology of
0.0399537023	two different
0.0399494784	proposed method for
0.0399405138	a unique
0.0399074450	the notion
0.0398257749	the most
0.0398063282	efficiently from
0.0397790364	to update
0.0397306663	to classify
0.0397109329	the limit
0.0397076844	derived for
0.0396919783	estimators with
0.0396889560	given level of
0.0396855025	a conjecture
0.0396298961	with minimal
0.0396261307	an expensive
0.0396120443	bound of
0.0395921516	the basic
0.0395735648	probability of
0.0395492063	distributions with
0.0395378485	the new
0.0394937424	a global
0.0394818290	to validate
0.0394727700	the goal
0.0394715865	interface for
0.0394396232	to exploit
0.0393805218	to analyse
0.0393743488	by reducing
0.0393723796	at scale
0.0393647877	distributions over
0.0393207793	than alternative
0.0393192085	numbers of
0.0393084967	modeling of
0.0393022371	a new approach
0.0392836388	feature of
0.0392684004	the usefulness
0.0392574059	a factor of
0.0392562844	variants of
0.0392444854	details of
0.0392403717	this type
0.0392363543	dependence on
0.0391931429	the development of
0.0391802901	a cloud
0.0391663929	a significant
0.0391516415	the sparsity of
0.0391260943	contrast to
0.0391032317	a systematic
0.0390907817	consistency of
0.0390886300	the relation between
0.0390748848	new r package
0.0390740026	the form of
0.0390727835	to converge
0.0390652368	many real
0.0390345990	use of
0.0389943309	method provides
0.0389789687	to ease
0.0388927173	the idea
0.0388881752	the flexibility of
0.0388371295	to demonstrate
0.0388239675	hold for
0.0387827728	computation via
0.0387763823	for drawing
0.0387369075	2 \
0.0387163838	by considering
0.0387085023	detection in
0.0386664650	to adjust
0.0386647541	the posterior distribution of
0.0386573008	difficulty in
0.0386505862	the lack of
0.0386279653	all possible
0.0385736726	the final
0.0385270088	at least one
0.0385062844	representations of
0.0384774229	examples from
0.0384770437	estimate of
0.0384700040	to do so
0.0383812389	the outcome
0.0383587529	used in bayesian
0.0383348359	the space of
0.0383343626	the vertex
0.0383245376	sets with
0.0382895582	likely to
0.0382403717	this methodology
0.0382110196	sample performance of
0.0381874889	to interpret
0.0381850146	used to sample
0.0381791138	used to demonstrate
0.0381690631	to deliver
0.0381558515	validity of
0.0380972909	curse of
0.0380868086	applicability to
0.0380505365	at risk
0.0379718182	attention to
0.0379503460	for assessing
0.0378790371	superior to
0.0378409661	an order
0.0378015026	an algorithm for
0.0377480468	issue by
0.0377467218	capabilities of
0.0377146733	means of
0.0376907097	analysis of time
0.0376704824	not require
0.0376360571	then applied
0.0376279061	a continuous time
0.0376252364	to employ
0.0376019472	package for
0.0375859356	goal of
0.0375606106	arises in
0.0375522478	the reference
0.0375424281	influence of
0.0375314547	property of
0.0375241782	between variables
0.0375084946	used to illustrate
0.0375072146	the e
0.0374794919	a careful
0.0374583673	an increase
0.0374569929	the curse
0.0374529750	the simulation results
0.0374528010	the existence of
0.0374116560	directly on
0.0374088401	estimated with
0.0373805413	variance of
0.0373732733	array of
0.0373696715	improvement in
0.0373696715	characteristics of
0.0373272239	the existence
0.0373226477	functionality of
0.0373172448	the rate of convergence
0.0373103126	for very large
0.0372814352	several existing
0.0372730005	the set of
0.0372444854	variances of
0.0372175499	given level
0.0371807423	an increasingly
0.0371544887	a fast algorithm for
0.0371462194	such cases
0.0371168858	estimator for
0.0370231064	more computationally
0.0370222717	new algorithm
0.0370015026	the complexity of
0.0369540966	the partition
0.0369539873	an em
0.0369419626	success of
0.0369240960	the mean square
0.0368984870	for extracting
0.0368810351	applicability of
0.0368581499	networks from
0.0368547694	a polynomial time
0.0368253356	with increasing
0.0367816591	the methodology
0.0367189747	other existing
0.0366914942	a fundamental
0.0366820095	the structure of
0.0366490388	to represent
0.0366386153	the computational
0.0366188873	entries of
0.0365971309	crucial to
0.0365907817	change in
0.0365674537	in \ mathbb
0.0365604429	a particular
0.0365308222	demonstrated in
0.0365190522	any type of
0.0365142789	a general class of
0.0364703933	inclusion of
0.0364607816	the efficiency
0.0364582946	speed of
0.0364552165	cost of
0.0364429382	simulation of
0.0364355811	occur in
0.0364191170	a linear
0.0363992719	binary or
0.0363895293	$ n \
0.0363879511	conducted to
0.0363763265	also give
0.0363762244	approach provides
0.0363703694	the total
0.0363696715	sources of
0.0363513105	solutions for
0.0363312541	a versatile
0.0363222752	treatment of
0.0363157410	condition on
0.0363040705	to characterize
0.0362930023	the degree
0.0362806341	systems with
0.0362444854	smoothness of
0.0361828645	matrix of
0.0361796764	procedure for
0.0361474557	a gamma
0.0361223175	linearly in
0.0361063338	the convergence of
0.0360893671	i \
0.0360117628	to define
0.0359725701	the objective
0.0359705731	an estimate of
0.0359615326	makes use
0.0359447718	the ability to
0.0359410177	basis for
0.0359012992	the bouncy
0.0358874048	simplicity of
0.0358733224	this scheme
0.0358727381	studied in
0.0357995280	a rich
0.0357965764	algorithm to
0.0357459883	impossible to
0.0357328210	applications in
0.0357252638	allow for
0.0356744784	to increase
0.0356663803	point of
0.0356522773	parts of
0.0356163715	this gap by
0.0355691085	x \
0.0355682159	the backward
0.0355071406	a formal
0.0355032030	the spread of
0.0355019589	for analyzing
0.0354552509	area of
0.0354497398	in comparison to
0.0354428853	data into
0.0354262240	a factor
0.0354182342	the value of
0.0354084004	the superiority
0.0354054828	approaches for
0.0353990366	gains in
0.0353978633	not available
0.0353973297	the validity
0.0353854897	algorithms in terms of
0.0353576844	guarantees for
0.0353392570	a specialized
0.0353338916	the effectiveness
0.0353287935	very well
0.0353091037	addition to
0.0352678953	given by
0.0352574059	the ratio of
0.0352561885	the last
0.0352170943	for implementing
0.0351914408	a surrogate
0.0351847600	the asymptotic variance of
0.0351573008	feasibility of
0.0351403010	a subset of
0.0351371177	a subset
0.0351278638	several applications
0.0351218259	1 \
0.0351028761	the joint
0.0350914187	instances of
0.0350867728	a crucial
0.0350460795	across many
0.0350418614	known as particle
0.0350182502	datasets from
0.0349990382	the new algorithms
0.0349981599	the same as
0.0349672239	the scope
0.0349186000	for performing
0.0349116845	in order to make
0.0348864539	the application of
0.0348831645	a wide
0.0348624231	also applied
0.0348468126	the behaviour of
0.0348407885	$ i
0.0348407030	an approximation to
0.0348160177	search for
0.0348047600	or not
0.0347980467	a complete
0.0347934511	a fraction
0.0347893327	properties such as
0.0347772239	the relation
0.0347582492	estimation in
0.0347173097	in detail
0.0347106605	the majority of
0.0347031465	employed for
0.0346560362	orders of
0.0345918542	available at
0.0345669626	light of
0.0345534099	a central
0.0345493767	the design of
0.0345307992	issue of
0.0345120623	the method's
0.0344853725	improvement of
0.0344668486	techniques from
0.0344597301	field of
0.0344546041	new approach
0.0344510677	a clear
0.0344510677	a proper
0.0344272432	the mean of
0.0344132477	to run
0.0344060882	a variant
0.0343846201	presented to
0.0343735039	a quantity
0.0343275137	detection of
0.0343177330	the flexibility
0.0343004641	to know
0.0342999180	this paper focuses on
0.0342823479	to state of
0.0342622618	dimension of
0.0342337718	the appropriate
0.0342123841	one way
0.0341593663	a state of
0.0341497597	interface to
0.0341218577	of computer experiments
0.0341201154	for calculating
0.0341166197	different methods
0.0340894048	employed in
0.0340869869	rates of
0.0340765599	novel algorithm
0.0340541957	to reconstruct
0.0340423408	a user
0.0340357025	as possible
0.0340291505	a recursive
0.0340198188	new estimator
0.0340149388	the mean square error
0.0339877370	a tractable
0.0339787989	to replace
0.0339386437	the rest
0.0339315224	review of
0.0339239839	the volume of
0.0339223192	for evaluating
0.0339158783	for predicting
0.0338947718	the usefulness of
0.0337883687	research on
0.0337767817	prior to
0.0337575742	magnitude of
0.0337012351	a discussion
0.0336563704	also provides
0.0336500652	areas such
0.0336063829	sparsity of
0.0335800551	behaviour of
0.0335308222	development of
0.0334692584	seems to
0.0334527559	observed on
0.0333862064	frequently in
0.0333542766	the unknown
0.0333516195	application on
0.0333140026	the construction of
0.0332995831	a pair of
0.0332685623	the maximum
0.0332567162	an optimization
0.0332342577	the behaviour
0.0331689761	any number of
0.0331655419	distribution with
0.0331553651	the order of
0.0331483031	efficient way
0.0331477185	this short
0.0331473594	expression for
0.0331221308	valid for
0.0330964573	problems in
0.0330903468	to explain
0.0330389418	stability of
0.0330206438	the overall
0.0329658552	a scalable
0.0329385443	a variational
0.0329196629	a connection
0.0328989286	robustness to
0.0328270168	many practical
0.0328125626	a mathematical
0.0327303292	for selecting
0.0327035818	r package for
0.0326710968	performance on
0.0326706981	a new sampling
0.0326518367	a novel bayesian
0.0325824588	an importance
0.0325809471	the magnitude of
0.0325556367	implementation using
0.0325131240	proposed in
0.0325101700	a new bayesian
0.0324797369	both simulated
0.0324715450	other methods
0.0324633588	and then
0.0324258402	central to
0.0324090245	pattern of
0.0323934357	carlo methods for
0.0323879511	employed to
0.0323620228	approximation for
0.0323552028	used to model
0.0323407678	system with
0.0323338811	to gain
0.0323249380	a greedy
0.0323212844	needed for
0.0322949632	for inferring
0.0322903010	a combination of
0.0322877370	a substantial
0.0322862979	an expectation
0.0322809942	works for
0.0322765513	and variance of
0.0322757198	a consistent
0.0322551879	d =
0.0322331217	scalability of
0.0322241910	the potential
0.0322171336	the possibility
0.0321153460	areas of
0.0321111559	commonly used to
0.0320812851	improvements in
0.0320415321	possible to
0.0320318429	the estimate of
0.0320014267	the computational complexity of
0.0319844011	a rigorous
0.0319788268	as well as real
0.0319487658	outliers in
0.0319449059	the output of
0.0319370665	several numerical
0.0319257464	a very
0.0318668960	gap by
0.0318644302	means to
0.0318640279	estimator from
0.0318491018	loss of
0.0318450076	the random walk metropolis
0.0318209551	algorithms such as
0.0318011790	approaches to
0.0317771317	a critical
0.0317762350	sampling with
0.0317297844	expensive to
0.0316479077	provided to
0.0316470984	a pre
0.0316234081	context of
0.0316148264	the algorithm to
0.0315927280	for constructing
0.0315661609	for illustration
0.0315576060	even more
0.0315548418	the robustness of
0.0315548418	the possibility of
0.0315544977	a parsimonious
0.0315380700	definition of
0.0315335710	accurate than
0.0314738985	relaxation of
0.0314727139	but not
0.0314645374	a modification
0.0314493332	a polynomial
0.0314384310	interest in
0.0313811277	a nonconvex
0.0313602074	a closed
0.0312145569	scaling of
0.0311999378	algorithm with
0.0311371444	the relationship
0.0311275383	a convenient
0.0311119395	numerical example
0.0311111793	illustrated in
0.0311073494	models via
0.0310835839	for finding
0.0310719633	both synthetic and
0.0310649349	resolution of
0.0310586724	to satisfy
0.0310113320	\ log ^
0.0310039545	the auxiliary
0.0309852090	novel method
0.0309590620	or even
0.0309571233	demonstrated with
0.0309491840	a framework
0.0309046896	a diverse
0.0308625349	reduces to
0.0308189705	the issue of
0.0308136338	consequence of
0.0307899399	utility of
0.0307741349	to deal
0.0307484733	r statistical
0.0307480875	the computational cost of
0.0307383846	the problem of sampling from
0.0307048418	the efficacy of
0.0306616639	introduction of
0.0305920991	a model for
0.0305669626	ergodicity of
0.0305548418	an ensemble of
0.0305072203	a broad
0.0304786730	the whole
0.0304447646	a method to
0.0304341223	out of
0.0304193815	hierarchy of
0.0304054828	techniques for
0.0304029653	many other
0.0303897774	for determining
0.0303546918	direction of
0.0303231642	work with
0.0303189705	the task of
0.0303106559	to maintain
0.0302860467	sense of
0.0302834620	a minimal
0.0302700511	as part of
0.0302569783	processes with
0.0302425126	a high
0.0302354085	whether or
0.0302306008	the relationship between
0.0302268827	a reasonable
0.0301990926	a simple yet
0.0301846770	the difference between
0.0301711104	a framework for
0.0301619993	a block
0.0301311548	the need to
0.0301200382	two real
0.0301042492	matrices with
0.0300955382	to cope with
0.0300920714	proposed for
0.0300881225	task of
0.0300844671	relevance of
0.0300767678	structure in
0.0300364539	a method for
0.0300149552	the utility
0.0299476013	a fully
0.0299322086	estimation for
0.0299197994	code for
0.0299042016	degeneracy of
0.0299001704	relevant to
0.0298929702	flexibility in
0.0298379650	variation of
0.0298306508	collected in
0.0298251051	the cumulative
0.0298048505	to get
0.0297498467	to measure
0.0297459667	for obtaining
0.0296963006	the full
0.0296843126	with application to
0.0296689144	embedded in
0.0296623789	or better
0.0296424815	under various
0.0296157739	one or
0.0296119096	choices of
0.0296106071	a manner
0.0295817670	a suite of
0.0295602725	not possible
0.0295582043	distribution at
0.0295312492	the new approach
0.0295304665	an alternative to
0.0295019109	all other
0.0295010631	comparison to
0.0294309883	estimators for
0.0294264856	the mean and variance
0.0293923418	a variant of
0.0293858870	to include
0.0293778729	the situation
0.0293084312	a latent
0.0292940889	the uncertainty in
0.0292427102	attempts to
0.0292105504	to transform
0.0291158141	done by
0.0290357978	the capacity
0.0289924323	the study of
0.0289879477	purpose of
0.0289763990	known to
0.0289763711	the capability
0.0289741782	some numerical
0.0289720318	the idea of
0.0289701588	location of
0.0289674525	the future
0.0289345600	a linear combination of
0.0289247074	reduced to
0.0289106703	potential of
0.0289014807	methods in terms of
0.0288595812	same time
0.0287823541	the approximation of
0.0287331217	forms of
0.0287205164	time series with
0.0287015576	many areas of
0.0286825950	the multiplicative
0.0286174072	result of
0.0286119775	two new
0.0285920991	the likelihood of
0.0284947765	a special case of
0.0284809254	same as
0.0284763036	inversion of
0.0284585139	implemented to
0.0284196672	the concentration
0.0284141924	to yield
0.0283548139	a positive
0.0283513274	errors in
0.0283198132	the product of
0.0282684834	want to
0.0282338312	key to
0.0281889340	the mean
0.0281644901	values for
0.0281029195	scope of
0.0280922880	generation of
0.0280504255	quantification of
0.0280061724	this new
0.0280002730	datasets with
0.0279918846	a challenging
0.0279912286	for generating
0.0279874668	a good
0.0279671478	contribution of
0.0279633567	comes with
0.0279544969	useful for
0.0279317990	choice for
0.0279188873	attention in
0.0279038818	graphs with
0.0278983536	except for
0.0278924617	to correct
0.0278881752	the boundary of
0.0278822325	to control
0.0278691494	this paper provides
0.0278581499	estimates from
0.0278529494	a realistic
0.0278102374	a simulated
0.0277966921	available in
0.0277912286	for approximating
0.0277632290	a typical
0.0277519347	resulting in
0.0277403422	a c + +
0.0276941039	the majority
0.0276894313	level of
0.0276590989	the behavior of
0.0276554221	to outperform
0.0276505334	a problem of
0.0276278151	many existing
0.0276148264	the model to
0.0276115726	a measure of
0.0276059677	a great
0.0275032030	the trace of
0.0274679325	datasets show
0.0274447646	the degree of
0.0274399312	this article provides
0.0274060464	packages for
0.0273923418	an approximation of
0.0273923418	a generalization of
0.0273678933	a flexible class of
0.0273426005	necessary to
0.0273021358	to take into
0.0272423418	the potential to
0.0272145569	increase of
0.0272140091	the efficacy
0.0272015452	sampling for
0.0271916920	two types of
0.0271637165	expansion of
0.0271404198	pair of
0.0271107706	the absence
0.0270558039	some new
0.0269938873	significance of
0.0269730497	or more
0.0269331217	evolution of
0.0268512322	developed to
0.0267289483	a certain
0.0267042016	determinant of
0.0266371484	challenges in
0.0266191096	a powerful tool for
0.0266104098	the gap
0.0266082768	the intrinsic
0.0265790974	the distance between
0.0265418356	output of
0.0265247339	then use
0.0265232837	a straightforward
0.0265085220	for such models
0.0264908210	a dataset
0.0264663115	a bootstrap
0.0264302556	the range of
0.0264294180	quality of
0.0264283053	also consider
0.0262696161	a heuristic
0.0261898554	new algorithms for
0.0261698696	the role of
0.0261661013	schemes for
0.0260438873	variation in
0.0260335176	a geometric
0.0259375349	price of
0.0259260368	inference under
0.0259240232	series of
0.0259198720	by orders of
0.0259035434	an analysis of
0.0258662068	proposals for
0.0258438873	issue in
0.0258292016	straightforward to
0.0257590621	this issue by
0.0257448132	the consistency of
0.0257078331	outputs of
0.0256864153	separation of
0.0256736530	the first one
0.0256336551	introduced in
0.0255756752	a product of
0.0255548418	the validity of
0.0255468184	also find
0.0255357556	the simulation of
0.0255303635	volume of
0.0255052593	function over
0.0254796281	the history of
0.0254566275	methodology on
0.0254375349	variations of
0.0253964034	improve on
0.0252839027	problem of
0.0252728450	a quantity of
0.0252311746	novel class of
0.0252304923	growth of
0.0252060831	then show
0.0251652048	the error of
0.0251605540	topic of
0.0251331405	introduced to
0.0251130841	methodology to
0.0251035434	the power of
0.0251020679	way to
0.0250737490	information on
0.0250693815	quantity of
0.0250340798	to offer
0.0249289805	user to
0.0249082442	an example of
0.0249010009	and hence
0.0248881752	the difficulty of
0.0248646518	work on
0.0248468126	the derivation of
0.0248313007	to allow
0.0248068369	the inner
0.0247977016	to specify
0.0247722207	an application of
0.0247692670	an extension to
0.0246922668	modification of
0.0246839749	ability of
0.0246577631	other than
0.0246315632	new class of
0.0246066156	the discrepancy between
0.0245985444	a specified
0.0245920991	the sequence of
0.0245886760	novel approach for
0.0245809471	the length of
0.0245809471	the definition of
0.0245548418	the relevance of
0.0245002900	reported in
0.0244950378	a sequential
0.0244855119	mean and variance of
0.0244513086	and thus
0.0244256912	emulation of
0.0243768675	to appear
0.0243301886	new family of
0.0242460005	demonstrated to
0.0242383116	effect of
0.0241475910	idea of
0.0240332116	many applications in
0.0240144800	a popular method for
0.0240141546	enough to
0.0240141175	mechanism for
0.0239683061	use with
0.0239667657	applied in
0.0239375349	visualization of
0.0239170278	distribution under
0.0239073723	goes to
0.0238726609	criteria for
0.0238573132	the variability of
0.0237929540	the rate of
0.0237698127	challenge in
0.0236970920	considered in
0.0236889267	an efficient algorithm for
0.0236382656	the absence of
0.0236107217	done in
0.0236016595	a wide class of
0.0235666022	robustness of
0.0235662187	tool to
0.0235645765	each time
0.0235548418	the ability of
0.0235095185	the stability of
0.0235095185	the mixture of
0.0234497048	to simulate from
0.0234228908	potential to
0.0234084124	than other
0.0233266642	the most widely used
0.0232160434	the field of
0.0231222207	the speed of
0.0230535434	the potential of
0.0230499592	an approach to
0.0230347600	the total number of
0.0229928905	the method of
0.0228648312	the curse of
0.0228568937	options for
0.0228474508	measured in
0.0228105742	difference of
0.0226787775	problem by
0.0225951328	expressed in
0.0225689585	a way of
0.0225455769	priors for
0.0225314626	then used to
0.0225239799	the superiority of
0.0224775998	first time
0.0224775198	coverage of
0.0224528913	some other
0.0224497398	the scope of
0.0224358028	transformation of
0.0223827756	integration of
0.0223020047	especially for
0.0222603051	length of
0.0222471721	the generation of
0.0222154375	imputation of
0.0219855862	this way
0.0219375349	allocation of
0.0219181838	the computational efficiency of
0.0218999592	the posterior mean
0.0217862575	not well
0.0217684834	a serious
0.0217507324	coupling of
0.0217478642	the method to
0.0217231650	selection for
0.0216753691	the mean and
0.0216378770	also known
0.0216191020	outcome of
0.0216064528	not need
0.0216063175	result for
0.0215025696	developments in
0.0214818580	computations for
0.0214726763	coefficient of
0.0214350494	many different
0.0214155409	derivative of
0.0213615041	to appear in
0.0213554044	evaluated in
0.0213198696	a hierarchy of
0.0213129451	to allow for
0.0212989799	the proportion of
0.0212877980	new method for
0.0212873828	work well
0.0212684471	a dataset of
0.0212670944	desirable to
0.0212160434	the assumption of
0.0211828645	study of
0.0211575932	potential for
0.0211465557	problem at
0.0211418285	the dimensionality of
0.0211289113	heterogeneity in
0.0211266879	performed in
0.0211164064	a novel class of
0.0211161933	the package provides
0.0211020185	support for
0.0210960778	optimality of
0.0210712117	the need
0.0210321575	predictions for
0.0209650394	associated to
0.0209469379	root of
0.0209419834	quantities of
0.0209182222	provided for
0.0208918503	not rely on
0.0208733475	order of
0.0208550554	intervals for
0.0206674795	series with
0.0206521316	to describe
0.0206267804	the expectation of
0.0205939978	on simulated and
0.0205859029	difficulties in
0.0205790739	normality of
0.0205790739	works in
0.0205730742	role of
0.0205709900	the mixing time of
0.0205548418	the geometry of
0.0205546836	boundary of
0.0205318429	the computational and
0.0205089635	end of
0.0204863875	for dealing with
0.0204757656	the notion of
0.0204590989	the limit of
0.0203923418	an implementation of
0.0203528113	proposed to
0.0202998124	to converge to
0.0202596206	this method to
0.0201925715	an algorithm to
0.0201828645	error of
0.0201714695	surface of
0.0201661058	defined in
0.0201661058	shape of
0.0201634788	to help
0.0201330718	propose to
0.0200920991	the type of
0.0200909438	the best
0.0200582442	a way to
0.0200067843	available from
0.0200060778	tool in
0.0199754326	of interest to
0.0199212684	model via
0.0198693978	concept of
0.0198693978	costs of
0.0198490457	generalized to
0.0198481605	a fraction of
0.0198186917	theorem for
0.0197507324	contributions of
0.0196589473	available as
0.0196505334	a method of
0.0196479911	to zero
0.0195855300	important to
0.0195827242	established in
0.0195523312	an order of
0.0195222207	a study of
0.0195116136	trace of
0.0195114171	this problem by
0.0194825619	appear in
0.0194517352	test for
0.0193834699	derived in
0.0193735049	assessed in
0.0193557671	the mean and variance of
0.0192818202	the superior performance of
0.0192778646	gain in
0.0192713992	often used to
0.0192656121	novel approach to
0.0192489773	new approach for
0.0192177558	on synthetic and
0.0191905074	quantiles of
0.0191828757	settings with
0.0191509011	specified by
0.0190645319	to take
0.0190126892	the package also
0.0190113490	the contribution of
0.0189999797	challenge for
0.0189691362	tuning of
0.0189250585	new approach to
0.0189041020	modes of
0.0188830178	geometry of
0.0188350813	power of
0.0188300857	survey of
0.0188292567	outside of
0.0188161562	principle of
0.0187785904	for inference in
0.0187770640	the introduction of
0.0187769068	least one
0.0187456921	in many areas of
0.0187284435	scalable to
0.0187231694	especially in
0.0186364799	this class of
0.0185873948	factorization of
0.0185790739	spread of
0.0184382656	the specification of
0.0184225924	expected to
0.0183865266	challenge of
0.0183764153	acceleration of
0.0183073407	rates for
0.0182164820	these new
0.0181996441	chains with
0.0181931839	for inference on
0.0181745536	prior on
0.0181557669	order to
0.0181029147	a focus on
0.0180978276	usage of
0.0180790688	discussed in
0.0180492248	multivariate time
0.0179965289	iteration of
0.0179883281	condition for
0.0179843959	criterion for
0.0179757656	the applicability of
0.0179220078	of interest in
0.0179099797	element of
0.0179043356	strategy to
0.0178777915	formulated in
0.0178351942	the case for
0.0178288789	the best known
0.0177951678	the first time
0.0177819834	flexibility of
0.0177703710	dependence in
0.0177646732	solutions with
0.0177039392	both simulated and
0.0176843126	a lack of
0.0176276707	a non
0.0175957277	dataset with
0.0175359518	dimensionality of
0.0175344927	analysis via
0.0175005334	in case of
0.0173630700	data example
0.0173156812	the method on
0.0173156812	the algorithm on
0.0172884435	presented for
0.0172871626	to do
0.0172743931	a new approach to
0.0172423418	the user to
0.0171970920	developed in
0.0171970920	presented in
0.0171769440	even with
0.0171513177	as compared to
0.0171386899	for problems with
0.0171007170	the advantage of
0.0170920991	the level of
0.0170145629	research in
0.0170057355	applicable in
0.0169928905	the evaluation of
0.0169928905	the implementation of
0.0169864799	the evolution of
0.0169820383	apply to
0.0169424323	a new algorithm for
0.0169184471	the sense of
0.0168906968	need for
0.0168710828	sufficient to
0.0168688486	efficiency by
0.0168212296	bound for
0.0168060485	theory for
0.0167793797	fields with
0.0167785904	the scalability of
0.0166505334	a comparison of
0.0166127311	history of
0.0165513117	difficulty of
0.0165429540	the family of
0.0165239799	the question of
0.0165184471	a review of
0.0165095185	the detection of
0.0164693202	a bayesian approach to
0.0164033931	computed in
0.0163844703	evidence for
0.0163612816	necessary for
0.0163474682	available on
0.0163395292	the nature of
0.0163226740	value at
0.0163138895	task in
0.0163075400	each iteration of
0.0163005334	the area of
0.0161739799	the usage of
0.0160690796	to give
0.0160483587	runs in
0.0160025176	introduced for
0.0159999797	needed in
0.0159899063	performed to
0.0159721387	considered to
0.0158545629	constrained to
0.0158524620	for bayesian inference in
0.0157962948	and robustness of
0.0157863134	both in terms of
0.0157614313	the identification of
0.0157420991	the computation time
0.0157034429	framework to
0.0156560877	the availability of
0.0156171575	statistic for
0.0156063979	technique to
0.0155830794	allows to
0.0154999797	exist in
0.0154741206	found in
0.0154483487	performance with
0.0153438203	not need to
0.0153010209	and thereby
0.0152929540	the literature for
0.0152884435	solution for
0.0152324287	a novel approach to
0.0151857556	the calculation of
0.0151595185	a technique for
0.0150590085	a novel approach for
0.0150377785	function at
0.0150097702	a new method to
0.0149837948	a modification of
0.0149319140	assumption of
0.0146674063	region of
0.0146437634	described in
0.0146364799	the accuracy and
0.0146085828	question of
0.0145239684	equations with
0.0143998430	a way
0.0143607953	returns of
0.0143185662	a tool for
0.0140961985	found to
0.0139928905	the combination of
0.0139010049	bias in
0.0139004126	procedure to
0.0138614799	in comparison with
0.0138152048	a result of
0.0137614313	for sampling from
0.0136428905	a version of
0.0135340730	correction of
0.0132823479	this approach to
0.0132478962	considered for
0.0127199345	allow to
0.0125728722	the convergence properties of
0.0123497898	two novel
0.0123410049	provided in
0.0119429540	the likelihood for
0.0119304597	made in
0.0111864816	a self
0.0103532678	made to
