0.9791009276	representer theorem
0.9767642673	credit card
0.9764773164	prostate cancer
0.9756213797	nash equilibria
0.9749566071	stock market
0.9734808899	banach spaces
0.9734336677	remote sensing
0.9729604097	disparate impact
0.9723173018	saliency maps
0.9721849529	credit assignment
0.9720952519	renormalization group
0.9719854998	exponential families
0.9716711147	infinitely wide
0.9716365834	simulated annealing
0.9713526834	colorectal cancer
0.9710340479	mild cognitive impairment
0.9707881490	intrinsic motivation
0.9707456112	automatic differentiation
0.9703980280	resource allocation
0.9703757595	compressive sensing
0.9702774353	taylor expansion
0.9699326405	nearest neighbors
0.9698626672	satellite imagery
0.9698488015	persistent homology
0.9698086834	partially observable
0.9696929887	mobile phone
0.9696509945	normalizing flow
0.9696151551	negative binomial
0.9696142232	nash equilibrium
0.9690836723	multilayer perceptrons
0.9689936307	land cover
0.9687596656	autonomous driving
0.9687338792	infectious disease
0.9684646900	social media
0.9683281798	vital signs
0.9683017492	polyphonic music
0.9682340760	early stopping
0.9678314831	vertex nomination
0.9674457847	anomaly detector
0.9671970999	kalman filter
0.9671783355	semidefinite programming
0.9670917492	blood glucose
0.9666965746	ct scans
0.9666576892	homomorphic encryption
0.9666030862	weak supervision
0.9665672671	covariate shift
0.9664927728	magnetic resonance imaging
0.9661977279	brownian motion
0.9660849554	shortest paths
0.9659059464	sleep staging
0.9658757223	magnetic resonance
0.9657923455	supply chain
0.9651092378	differential equation
0.9650907915	wavelet transform
0.9650451631	disease progression
0.9649767507	early warning
0.9648462688	backdoor attacks
0.9648197345	quantum mechanics
0.9647255464	collision avoidance
0.9647026826	breast cancer
0.9646066916	lipschitz continuity
0.9645033355	computed tomography
0.9644026349	majority voting
0.9643686630	majority vote
0.9642126429	dark matter
0.9641724031	android malware
0.9641397785	hyperparameter tuning
0.9641060000	shapley values
0.9639561370	alternating minimization
0.9639154371	cyber security
0.9638494114	drug discovery
0.9636959905	spurious local minima
0.9635876404	wasserstein barycenter
0.9635762412	control variates
0.9635353269	gibbs sampling
0.9634532964	markov chain monte carlo
0.9633699398	facial expression
0.9633364504	anomaly detectors
0.9632634798	impulse response
0.9631372852	smart meter
0.9630428221	criminal justice
0.9628272888	kendall's tau
0.9627009458	sleep apnea
0.9626752560	atari games
0.9626642090	mode collapse
0.9626194787	compressed sensing
0.9626056399	radial basis
0.9625893623	blind source separation
0.9625257799	steepest descent
0.9625250310	air pollution
0.9624712645	nuclear norm
0.9622808751	decision tree
0.9621752716	conditional independence
0.9620658000	logarithmic regret
0.9620229815	augmented lagrangian
0.9619757735	rectified linear units
0.9619373626	display advertising
0.9619305343	porous media
0.9618902489	concentration inequalities
0.9617965536	fault tolerance
0.9615476541	shortest path
0.9614630580	partial differential equations
0.9614585404	markov chain
0.9612297828	filter bank
0.9611501667	weight decay
0.9610893904	white matter
0.9610655671	semismooth newton
0.9609853528	fictitious play
0.9609339723	feature extractor
0.9606417256	concept drift
0.9606278451	pairwise comparisons
0.9605488797	diabetic retinopathy
0.9604859554	irregularly sampled
0.9604598511	boosted trees
0.9603202195	autonomous vehicles
0.9602759863	propensity score
0.9601629864	virtual screening
0.9600093469	lossless compression
0.9600036371	riemannian manifolds
0.9599813095	eligibility traces
0.9598300946	credit scoring
0.9597981411	artificial intelligence
0.9597833329	atrial fibrillation
0.9597737126	logistic regression
0.9597602545	nearest neighbor
0.9596382208	particle physics
0.9593412562	emergency department
0.9592392082	dot product
0.9591825107	named entity recognition
0.9591469023	nearest neighbour
0.9590969969	natural language processing
0.9590392254	music genre
0.9590352552	fake news
0.9590060750	collaborative filtering
0.9590053780	empirical risk minimization
0.9589601619	linearly separable
0.9588847893	evasion attacks
0.9588162991	alzheimer's disease
0.9587664099	dantzig selector
0.9586802720	reproducing kernel hilbert space
0.9586458529	contextual bandit
0.9585972247	equalized odds
0.9585900017	electronic health record
0.9585440932	behavioral cloning
0.9584944240	projection pursuit
0.9582896671	informal settlements
0.9581877419	stein discrepancy
0.9579465597	demographic parity
0.9579212455	hilbert spaces
0.9578961472	semidefinite programs
0.9578241575	total variation
0.9578046429	solar irradiance
0.9577957103	electricity consumption
0.9577893859	optic disc
0.9576606080	persistence diagrams
0.9575391220	submodular maximization
0.9573663953	counterfactual explanations
0.9572800353	minimum spanning tree
0.9572798564	line searches
0.9572721914	reading comprehension
0.9572610213	belief propagation
0.9571952683	underdamped langevin
0.9569679242	phase transitions
0.9568874194	fourier transform
0.9568728809	mahalanobis distance
0.9568400282	heart failure
0.9567641704	multilayer perceptron
0.9567057749	reward shaping
0.9567047581	unobserved confounding
0.9566504634	hyperspectral unmixing
0.9566487474	blood pressure
0.9566050182	tucker decomposition
0.9565245717	positive semidefinite
0.9564720648	reverse engineering
0.9564679799	biological plausibility
0.9564417567	eye tracking
0.9564374922	von mises
0.9562270931	intensive care unit
0.9562154036	ordinary differential equation
0.9561690958	receptive field
0.9560067425	locality sensitive hashing
0.9559593886	coordinate ascent
0.9559479921	inverted pendulum
0.9559339251	factor analyzers
0.9558898497	lipschitz constants
0.9558727539	posterior collapse
0.9558306455	clinical trials
0.9558082565	ordinary differential equations
0.9558076506	preterm birth
0.9557950508	dueling bandits
0.9557020066	beam search
0.9556958758	question answering
0.9556762537	weakly supervised
0.9556279899	granger causality
0.9555871102	nuclear norm minimization
0.9555692888	biologically inspired
0.9555299021	directed acyclic graphs
0.9554431762	receiver operating characteristic
0.9553968782	feature extraction
0.9553371325	uncertainty quantification
0.9553032436	bad local minima
0.9551098429	synthetic aperture radar
0.9550726059	mutual information
0.9550317407	statistical mechanics
0.9549885117	base station
0.9548062725	traffic congestion
0.9547560487	lottery tickets
0.9547556001	cosine similarity
0.9547240332	precision medicine
0.9547117914	markov blanket
0.9546857041	object detection
0.9546842048	quantum circuits
0.9546199100	mit license
0.9545566295	receptive fields
0.9545289682	episodic memory
0.9544958121	false positive
0.9544379686	stock price
0.9543501059	machine translation
0.9542729088	fault diagnosis
0.9542424595	autism spectrum disorder
0.9542319592	virtual reality
0.9541777770	speaker diarization
0.9541777277	lung nodule
0.9541657099	bregman divergences
0.9540212992	taxi demand
0.9540017273	pattern recognition
0.9539765630	wearable sensors
0.9539490603	source separation
0.9539237127	markov chains
0.9538353384	neural nets
0.9537940714	message passing
0.9537308168	speaker verification
0.9536596962	embarrassingly parallel
0.9536572265	restricted isometry property
0.9536519699	news articles
0.9535678816	random walks
0.9535557735	autonomous vehicle
0.9535402473	emotion recognition
0.9534007222	provably convergent
0.9533626385	correlation coefficient
0.9533575839	smart grid
0.9532087900	renewable energy
0.9531964168	relational reasoning
0.9531694030	bregman divergence
0.9530644980	absolute deviation
0.9530641192	positive definite
0.9530178065	optical flow
0.9529975600	restricted isometry
0.9529800763	differential equations
0.9529677465	privacy protection
0.9529572734	dynamical systems
0.9529106344	differentially private
0.9529065589	random walk
0.9527961500	semidefinite relaxation
0.9526256698	constraint satisfaction
0.9525788141	gated recurrent units
0.9525200616	gradient descent
0.9525178683	stochastic gradient descent
0.9525069932	gated recurrent unit
0.9524620978	integer programming
0.9523338620	convex relaxation
0.9523253947	medical imaging
0.9523082863	heart disease
0.9521745079	mirror descent
0.9520379157	expectation propagation
0.9520086180	principal component
0.9519255968	robotic grasping
0.9519200185	particle filter
0.9519150785	stack overflow
0.9518649221	decision trees
0.9518037205	poisoning attacks
0.9517238689	biologically plausible
0.9515488373	outer loop
0.9515064387	hardware accelerators
0.9514993701	shear stress
0.9514417977	mental health
0.9512960833	double descent
0.9510244963	air quality
0.9509714714	reproducing kernel hilbert spaces
0.9509247097	exponential family
0.9508836674	biomarker discovery
0.9507229135	source code
0.9507226586	false positives
0.9507153479	collapsed gibbs
0.9506699298	basis pursuit
0.9505902843	wasserstein distance
0.9505493626	situational awareness
0.9505231702	flat minima
0.9505122472	importance sampling
0.9504932521	dynamical isometry
0.9504126755	noise injection
0.9504039271	lossy compression
0.9503680240	dimension reduction
0.9502628712	hypothesis testing
0.9502470953	cold start
0.9502040207	dynamic pricing
0.9501329148	tsallis entropy
0.9500772141	hyperbolic tangent
0.9500545967	link prediction
0.9500417363	edit distance
0.9499749792	keyword spotting
0.9499610587	principal components
0.9499528625	class imbalance
0.9498437976	natural language
0.9497973803	universal approximators
0.9497628730	brier score
0.9496692737	subsurface flow
0.9496539610	kronecker product
0.9496010726	coordinate descent
0.9495470539	wearable devices
0.9495444345	mountain car
0.9494018059	skin cancer
0.9492913599	cutting plane
0.9492896478	bounding box
0.9492704599	user preferences
0.9492058900	intrusion detection
0.9491928152	shannon entropy
0.9490968536	saddle point
0.9490387648	inception v3
0.9489171166	outlier detection
0.9488721724	inductive biases
0.9488279785	lateral connections
0.9487168816	openai gym
0.9487066894	variance reduction
0.9486909008	privacy leakage
0.9486237424	junction tree
0.9484680408	mass spectrometry
0.9484513156	reparameterization trick
0.9482061315	elastic net
0.9481824468	stopping rule
0.9481633219	web pages
0.9481469064	smart cities
0.9480029657	dimensionality reduction
0.9479800449	dna methylation
0.9479273024	sentiment analysis
0.9479161356	riemannian manifold
0.9478572191	contrastive divergence
0.9478560705	lagrange multiplier
0.9478371540	maximum likelihood
0.9478308914	point cloud
0.9477628770	fused lasso
0.9477093303	indian buffet process
0.9476995132	hilbert space
0.9476762719	clinical notes
0.9475066226	symmetry breaking
0.9474392366	amazon mechanical turk
0.9473425731	wind speed
0.9472937945	climate change
0.9472628722	escape saddle points
0.9472568083	semantic segmentation
0.9471997655	bandit feedback
0.9470650883	densely connected
0.9470232280	domain adaptation
0.9468991919	phase transition
0.9468631782	duality gap
0.9468520939	density estimation
0.9468485511	health care
0.9467922855	spike trains
0.9467652569	hard thresholding
0.9466458648	randomized smoothing
0.9466431374	electronic health records
0.9464345379	parkinson's disease
0.9464231699	left ventricle
0.9464180816	optical character recognition
0.9464123355	robotic manipulation
0.9463953492	nesterov's accelerated
0.9463096954	optical coherence tomography
0.9460887383	associative memories
0.9460855523	epistemic uncertainty
0.9459608371	piecewise constant
0.9458887800	matrix multiplication
0.9458606797	saliency map
0.9458421016	permutation invariant
0.9457841262	myocardial infarction
0.9457126776	stochastic gradient
0.9456363418	word embeddings
0.9455910184	automatic speech recognition
0.9455229444	sparse coding
0.9454828302	motor imagery
0.9454147799	point clouds
0.9453296901	intensive care units
0.9453026930	orthogonal matching pursuit
0.9452988499	coreset construction
0.9451113323	infinite horizon
0.9449340957	experience replay
0.9449004886	voice conversion
0.9448641695	autoregressive integrated moving average
0.9448485643	permutation equivariant
0.9448419510	ridge regression
0.9448337526	directed acyclic graph
0.9447777471	heavy ball
0.9447692761	saddle points
0.9447169262	thompson sampling
0.9447084791	tensor decomposition
0.9446427522	stiefel manifold
0.9445660732	apache spark
0.9445601779	sensitive attributes
0.9445188066	image restoration
0.9445139961	genetic programming
0.9445033693	speech recognition
0.9444200675	quadratic programming
0.9443616206	medical diagnosis
0.9443580707	false discovery rate
0.9443365140	stick breaking
0.9443095379	wasserstein barycenters
0.9442628736	skip connections
0.9441876571	restricted boltzmann
0.9441023189	closed loop
0.9440565103	langevin dynamics
0.9440477017	outer product
0.9440433367	steering angle
0.9440101088	stochastic blockmodel
0.9439145407	handwritten digit
0.9438948461	wasserstein distances
0.9438765166	motion planning
0.9438670547	diffuse interface
0.9438284878	fault tolerant
0.9437893034	financial markets
0.9437486774	public health
0.9437218128	community detection
0.9436638923	stein's lemma
0.9436592081	individualized treatment
0.9436440295	indian buffet
0.9435999242	false alarm
0.9435418366	automatic relevance determination
0.9435103588	infinitesimal jackknife
0.9435034706	krylov subspace
0.9434277987	feature selection
0.9433851959	relation extraction
0.9433060134	dilated convolutions
0.9432153715	kalman smoothing
0.9431689191	fraud detection
0.9431326048	lagrange multipliers
0.9430859427	random forest
0.9430819199	blind deconvolution
0.9430714464	activity recognition
0.9429988318	smart homes
0.9429930210	cloud computing
0.9428889352	diminishing returns
0.9428169368	anomaly detection
0.9427985507	sliding window
0.9427550013	occam's razor
0.9426695884	gradient ascent
0.9426267066	macular edema
0.9425986333	rademacher complexity
0.9425976111	chinese restaurant process
0.9425702850	hindsight experience replay
0.9424897211	life cycle
0.9424880608	radial basis function
0.9424194536	activation functions
0.9423831081	hash codes
0.9423487869	cognitive radio
0.9423483390	von neumann
0.9423456119	shortcut connections
0.9423014083	null space
0.9422880968	nist sre
0.9422409061	grossly corrupted
0.9422269992	flow cytometry
0.9420903483	randomly initialized
0.9420824022	instrumental variable
0.9420680012	taylor series
0.9420444257	web page
0.9420308552	nearest neighbours
0.9419547084	personalized medicine
0.9418843787	treatment assignment
0.9418371964	differential privacy
0.9418255538	intrinsic dimensionality
0.9417735531	impossibility result
0.9417074612	covering numbers
0.9416796851	trend filtering
0.9416447570	infectious diseases
0.9415494127	convex optimization
0.9415372343	super resolution
0.9415034257	alzheimer's disease neuroimaging initiative
0.9414776136	block coordinate descent
0.9414729782	stopping criterion
0.9414156546	power grids
0.9414037558	expert demonstrations
0.9413601000	knowledge distillation
0.9413431718	rectified linear unit
0.9413205936	polynomial chaos expansions
0.9413013691	real estate
0.9412626913	graph isomorphism
0.9411977097	cyber threat
0.9411969271	surrogate losses
0.9411913344	concordance index
0.9411199412	user satisfaction
0.9411149477	speech enhancement
0.9410840021	physics informed
0.9410568422	speech synthesis
0.9410135186	imputing missing
0.9410005351	chest radiographs
0.9409962382	restricted boltzmann machines
0.9409712977	aleatoric uncertainty
0.9409453049	feature engineering
0.9409438306	hill climbing
0.9409112364	fact checking
0.9409009035	minimum description length
0.9408366453	catastrophic forgetting
0.9408015898	cross entropy
0.9407441689	rule lists
0.9407264975	game theoretic
0.9407252099	canonical polyadic
0.9406900357	false negatives
0.9406832945	covariance matrices
0.9405867126	decision stumps
0.9405572079	regret minimization
0.9404581459	euclidean distance
0.9403702256	riemannian geometry
0.9402823562	adiabatic quantum
0.9402781195	isolation forest
0.9402565029	expectation maximization
0.9402302912	pareto fronts
0.9402256695	carbon footprint
0.9402065345	batch normalization
0.9401960555	replica exchange
0.9401682910	variational bayes
0.9401633141	novelty detection
0.9401535585	pattern mining
0.9399927226	functional magnetic resonance imaging
0.9399442527	confidence interval
0.9399097876	cartesian product
0.9398738763	hawkes process
0.9398703699	entity resolution
0.9398548963	sliced wasserstein
0.9398515945	expectation maximisation
0.9398030199	hyperparameter optimization
0.9396327902	gibbs sampler
0.9396179431	gaussian process
0.9396178465	digital twin
0.9395952426	optimal transport
0.9395366629	winning tickets
0.9394808638	boltzmann machine
0.9394532992	electronic medical records
0.9393449368	heart sound
0.9393226401	associative memory
0.9392120741	failure modes
0.9391796252	body mass index
0.9391518653	recommender systems
0.9391341941	fluorescence microscopy
0.9391184079	projected gradient descent
0.9390899046	byzantine resilient
0.9390701120	entropic regularization
0.9390613798	mixed membership
0.9390157689	certified defense
0.9390112325	adversarial attacks
0.9390094092	indoor localization
0.9390001708	social welfare
0.9389848875	motif discovery
0.9389324250	relative entropy
0.9389156732	fluid flow
0.9388441016	image captioning
0.9387905960	asymptotic optimality
0.9387577231	explainable ai
0.9387353040	secret sharing
0.9387108386	lagrangian dual
0.9386971785	temporal difference
0.9386735268	marginal likelihood
0.9386494188	medical records
0.9385470807	normalizing flows
0.9385417598	confidence intervals
0.9385253118	video games
0.9384965037	synaptic plasticity
0.9383989515	partially observed
0.9383752520	chemical compounds
0.9383633389	privacy preserving
0.9382598162	data augmentation
0.9382046571	kalman filtering
0.9381366048	protected attributes
0.9381363153	gene expression
0.9381111025	hyperspectral images
0.9380705518	digit recognition
0.9380341606	f1 score
0.9380089582	object detectors
0.9379876814	governing equations
0.9378723116	linear algebra
0.9377348280	discount factor
0.9376932218	piecewise affine
0.9376635329	minimax optimality
0.9376197230	bellman equation
0.9375760907	malware detection
0.9375644434	gesture recognition
0.9374910709	finite element
0.9373435179	armed bandits
0.9372841235	stock prices
0.9372160160	convolutional filters
0.9371409720	conical hull
0.9371282978	matrix completion
0.9370316352	blind spots
0.9370149162	secure aggregation
0.9370146575	knowledge transfer
0.9369738599	mobile app
0.9369239617	black hole
0.9369037345	behavior cloning
0.9368934343	randomized controlled trials
0.9368099593	random projections
0.9367948393	binding affinity
0.9366574451	heterogeneous treatment effects
0.9366452205	speaker recognition
0.9366412615	triplet loss
0.9365511724	partial differential equation
0.9365433319	gibbs samplers
0.9365270663	importance weighting
0.9364137728	lane change
0.9363421466	delayed feedback
0.9362776983	naive bayes
0.9362739848	planted clique
0.9362643007	peer review
0.9362540427	universally consistent
0.9361903822	physiological signals
0.9361739674	kl divergence
0.9361024975	hate speech
0.9360915929	massive mimo
0.9360238770	depthwise separable
0.9359668940	gradient boosted trees
0.9358545215	quantum annealer
0.9358213817	energy landscape
0.9357502547	latent confounders
0.9357470982	clinical trial
0.9357289715	organic molecules
0.9356773661	latent dirichlet allocation
0.9356188060	risk assessments
0.9356135036	directed acyclic
0.9354928307	node embeddings
0.9354786624	causal inference
0.9354628781	piecewise polynomial
0.9354301126	wind power
0.9354274528	handwritten digits
0.9354074162	exploratory data analysis
0.9353971573	inductive bias
0.9353961620	principal component analysis
0.9353867064	cardiovascular disease
0.9353439022	presidential election
0.9353261186	latent space
0.9352521298	neighborhood aggregation
0.9352203246	subset selection
0.9351737192	traffic flow
0.9350648357	adversarially trained
0.9349916096	jensen shannon divergence
0.9349129106	bilevel optimization
0.9348979857	photometric stereo
0.9348749231	globally convergent
0.9348040905	massively parallel
0.9347290429	critical care
0.9346384143	montezuma's revenge
0.9346034148	mel frequency cepstral
0.9346022361	bipartite ranking
0.9345230303	grid search
0.9344838230	quasi newton
0.9343918877	parallel tempering
0.9343649570	dueling bandit
0.9343636977	software package
0.9343352261	unmeasured confounding
0.9343163459	epileptic seizure
0.9342010491	unadjusted langevin
0.9341676723	overlapping groups
0.9341340877	decision boundaries
0.9341149422	random forests
0.9340514978	penn treebank
0.9340499775	hamiltonian monte carlo
0.9340141707	quantile regression
0.9339062807	markov random fields
0.9338712691	hyperspectral image
0.9338341893	cyber attacks
0.9337654304	local minima
0.9337287584	loopy belief propagation
0.9337240721	doubly robust
0.9337081415	pinball loss
0.9336898803	singing voice
0.9336157377	auto encoders
0.9336112530	random projection
0.9335278656	mahalanobis metric
0.9334983652	ride sharing
0.9334818729	late fusion
0.9334592990	restricted boltzmann machine
0.9334111832	multinomial logit
0.9333961865	piecewise linear
0.9333517695	texture synthesis
0.9333370383	topic modeling
0.9333184497	hawkes processes
0.9333019606	news recommendation
0.9332910664	heart rate
0.9331434878	birth death
0.9331380284	bellman operator
0.9330876319	derivative free
0.9330678845	user engagement
0.9330188647	laplacian eigenmaps
0.9330174731	variational inference
0.9329984244	brain connectivity
0.9329935625	contextual bandits
0.9329727183	disentangled representations
0.9329461254	byzantine workers
0.9329455083	heavy tails
0.9329152179	quantum computers
0.9328506292	energy landscapes
0.9328429219	upper confidence bound
0.9328307717	photometric redshifts
0.9328294348	hamming distance
0.9327904898	variable selection
0.9327018365	particle swarm optimization
0.9326656067	distributionally robust
0.9326293919	tensor factorization
0.9326244476	changepoint detection
0.9325822410	text mining
0.9325205436	binary classification
0.9325151943	adverse weather
0.9324984588	tensor completion
0.9324829906	generative modeling
0.9323902162	auto regressive
0.9323900189	variational autoencoder
0.9323407797	social networking
0.9323171940	undirected graphs
0.9323110054	facial landmark
0.9322515299	action spaces
0.9322262338	identically distributed
0.9321101252	prioritized experience replay
0.9321028425	provably correct
0.9320871996	human mobility
0.9320730558	hyperbolic space
0.9320599685	implicit feedback
0.9320487282	power allocation
0.9320313074	global optima
0.9320300402	path integral
0.9320150724	support vector machine
0.9320068679	drug repurposing
0.9319932160	news stories
0.9319767472	log determinant
0.9319042081	differential inclusions
0.9318480528	image generation
0.9318460133	electricity demand
0.9318046692	fano's inequality
0.9315801812	credit risk
0.9315790405	filter banks
0.9315132303	formal verification
0.9314747451	restricted eigenvalue
0.9314255280	particle filters
0.9313407697	rotation invariant
0.9313329082	extractive summarization
0.9312969909	sparsifying transform
0.9311316372	lung cancer
0.9311269185	wirtinger flow
0.9310467180	adversarially robust
0.9310346445	singing voice separation
0.9309663611	hypothesis tests
0.9309659325	maximum likelihood estimation
0.9309523773	feature importance
0.9309168229	word embedding
0.9309157022	spurious correlations
0.9308815820	face recognition
0.9308360715	markov random field
0.9308354989	low rank
0.9308255347	relu nets
0.9308074434	ordinal embedding
0.9307728214	monte carlo
0.9307353727	quantum annealing
0.9307284455	residual blocks
0.9307227526	hellinger distance
0.9306841482	object recognition
0.9306133507	tensor decompositions
0.9305839901	primal dual
0.9305660797	bayesian inference
0.9305514978	candecomp parafac
0.9305368198	approximate message passing
0.9305313697	spike sorting
0.9304766713	maximum correntropy criterion
0.9304679259	activation function
0.9304256898	single linkage
0.9304173248	bethe free energy
0.9304037158	competing risks
0.9303989138	generative adversarial nets
0.9303699556	style transfer
0.9302997336	programming languages
0.9302487375	mobile health
0.9302075278	abstractive text summarization
0.9301906850	markov decision processes
0.9301330700	artificial neural networks
0.9301228194	reproducing kernel hilbert
0.9301165289	conjugate priors
0.9301130292	parameter sharing
0.9300494801	markov chain monte
0.9299771787	description length
0.9298953462	github repository
0.9298712514	portfolio management
0.9298352684	poisoning attack
0.9297922479	intrinsically motivated
0.9297435502	cross validation
0.9297318277	square root
0.9296330166	inverse propensity
0.9296176007	auc maximization
0.9296074298	graph laplacians
0.9296027541	kronecker factored
0.9295184467	drug response
0.9294825417	risk aversion
0.9294623661	adversarial perturbations
0.9294145435	gravitational waves
0.9293526419	trust region
0.9293266383	graphics processing units
0.9293169501	matrix factorization
0.9293081756	asynchronous parallel
0.9293042848	pascal voc
0.9292894778	maximum margin
0.9290034565	bounding boxes
0.9289834953	support recovery
0.9289584239	resonance imaging
0.9289500481	weakly labeled
0.9289483186	gene regulation
0.9289380684	scattering transforms
0.9289341880	boltzmann machines
0.9288986835	power consumption
0.9288840369	gaussian processes
0.9288799277	bayesian nonparametrics
0.9288782568	cox proportional hazards
0.9288572047	experimental design
0.9288121411	np complete
0.9288086450	customer churn
0.9288027002	variational autoencoders
0.9287263802	isotonic regression
0.9286988930	uk biobank
0.9286935283	exposure bias
0.9286354440	unobserved confounders
0.9286254958	false alarm rate
0.9286000319	amino acid
0.9285781108	deepmind control suite
0.9285300780	image processing
0.9284958177	collapsed gibbs sampler
0.9284584065	cellular automata
0.9284086195	acute kidney injury
0.9283941131	chemical reactions
0.9283822283	hausdorff distance
0.9283485276	eye movements
0.9282692197	gaussian process regression
0.9282170872	annealed importance sampling
0.9282060897	particle filtering
0.9281975858	scattering transform
0.9281957269	support vector machines
0.9281849375	preferential attachment
0.9281503322	hankel matrix
0.9281196717	homotopy continuation
0.9280942539	phase retrieval
0.9280770181	distributional shift
0.9279998939	gradient boosting
0.9279875376	law enforcement
0.9279548034	latent variable
0.9279470431	python package
0.9279101668	sanity checks
0.9279075945	encoder decoder
0.9278819870	negative curvature
0.9278751499	exact recovery
0.9278333807	brain tumor segmentation
0.9278244426	weight sharing
0.9278211230	stratified sampling
0.9277873083	adversarial robustness
0.9277460372	stochastic blockmodels
0.9276877659	left atrium
0.9276281533	recommendation systems
0.9276163573	sensor fusion
0.9276031257	cluster centers
0.9275816968	skip connection
0.9275543130	kernel ridge regression
0.9275172145	embedded devices
0.9275074020	batch sizes
0.9275041995	multimodal fusion
0.9274911887	stationary ergodic
0.9274649395	big data
0.9274644107	sanity check
0.9273974470	risk minimization
0.9273943144	gaussian mixture
0.9272539450	treatment effects
0.9272390737	total correlation
0.9272151919	gene expression profiles
0.9271670912	survival curves
0.9271582698	lagrangian duality
0.9271196717	proportional hazards
0.9270583262	linear regression
0.9269847167	algorithmic fairness
0.9269820332	high resolution
0.9269756860	radiology reports
0.9269640279	information theoretic
0.9269032978	partial differential
0.9268871755	amazon ec2
0.9268199658	hinge loss
0.9267777029	coarse graining
0.9267292510	dynamic programming
0.9267126006	mixed integer programming
0.9266585128	procedurally generated
0.9266516059	policy gradient
0.9266458052	boosted decision trees
0.9266082121	predictive uncertainty
0.9265946774	infinite width
0.9265389030	imitation learning
0.9265227571	insider threat
0.9265059120	physical laws
0.9264847964	adjusted rand
0.9264448024	calcium imaging
0.9263981559	protected groups
0.9263885437	constraint violations
0.9263591795	data streams
0.9262920765	brain tumor
0.9262682547	adversarial examples
0.9262282073	linear programming
0.9262217261	applied mathematics
0.9261753589	confounding factors
0.9261196374	chest ct
0.9260680987	service providers
0.9260367025	langevin diffusion
0.9260329332	confusion matrix
0.9260146008	restricted strong convexity
0.9259868911	curiosity driven
0.9259572753	min max
0.9259466159	pulmonary nodule
0.9258227843	overlapping communities
0.9257585974	long range
0.9256852411	normalizing constants
0.9256621482	matching pursuit
0.9256372537	minwise hashing
0.9256354669	text categorization
0.9256047595	record linkage
0.9255269083	gradient decent
0.9255083064	image reconstruction
0.9254902500	accept reject
0.9254439431	gittins index
0.9254296213	electronic health
0.9254132878	bidirectional lstm
0.9254063200	empirical risk
0.9253710561	hierarchical clustering
0.9253680449	maximum entropy
0.9252604797	particle swarm
0.9252530554	doubly stochastic
0.9252492842	health status
0.9251459886	multidimensional scaling
0.9251298919	lifelong learning
0.9251170102	generalization bounds
0.9250534719	privacy risks
0.9250529326	spectral clustering
0.9250260667	domain randomization
0.9249966914	block diagonal
0.9249933491	health monitoring
0.9249346166	empirical bayes
0.9249232081	supplementary material
0.9249109056	gaussian mixtures
0.9248899458	spanning tree
0.9248770860	countably infinite
0.9248637074	predictive maintenance
0.9248418140	eluder dimension
0.9248334406	planted partition
0.9248180931	text summarization
0.9247754599	survival analysis
0.9247644748	photo realistic
0.9247382817	attention mechanisms
0.9247055998	federated averaging
0.9246511326	soil moisture
0.9246348720	energy disaggregation
0.9246297421	label propagation
0.9245818850	annealing schedule
0.9245567142	rejection sampling
0.9245189371	genome wide association studies
0.9244623619	long tailed
0.9244504375	signal processing
0.9244424623	tikhonov regularization
0.9244347368	floating point
0.9243994899	lessons learned
0.9243644194	steady state
0.9243616646	feature maps
0.9243508224	weather conditions
0.9243401918	video game
0.9242753446	eeg signals
0.9242590245	attributed graphs
0.9242529327	global minima
0.9242145857	image segmentation
0.9241544127	denoising autoencoder
0.9241445036	defensive distillation
0.9241166059	raspberry pi
0.9241100669	topological data analysis
0.9240996180	information retrieval
0.9240774593	algebraic geometry
0.9240330400	bipolar disorder
0.9240111010	chi square
0.9240005938	moment matching
0.9239109929	bayesian nonparametric
0.9238844827	auto sklearn
0.9238668500	discriminant analysis
0.9237868932	geodesic distance
0.9237655458	auto encoder
0.9237564301	mini batch
0.9236217843	false alarms
0.9235746364	majorization minimization
0.9235697813	skin lesions
0.9235553709	summary statistics
0.9235059569	moving average
0.9234835340	switching costs
0.9233991372	attention mechanism
0.9233359879	text classification
0.9233053480	protein ligand
0.9232669270	energy savings
0.9232453707	sparse recovery
0.9231834192	demand forecasting
0.9231223570	knowledge bases
0.9231054131	reproducing kernel
0.9231023620	facial expressions
0.9230747023	lie group
0.9229107977	spin glasses
0.9228976377	sharpe ratio
0.9228951304	simplicial complexes
0.9228773198	concave penalty
0.9228424720	warm start
0.9228136268	iterative hard thresholding
0.9227956490	penalized likelihood
0.9227951818	convex relaxations
0.9227594546	confidence bands
0.9226413638	statistical inference
0.9226383236	supplementary materials
0.9226271477	privileged information
0.9226090041	certified robustness
0.9225906888	cross modal
0.9225601438	load forecasting
0.9224673909	functional connectivity
0.9223975861	inverse problems
0.9223810564	gumbel softmax
0.9223525568	higher order
0.9223331439	association rules
0.9223216416	intrinsic dimension
0.9222984637	image recognition
0.9222926206	intelligent transportation systems
0.9222259021	nonnegative matrix
0.9222212579	sparsely connected
0.9222186641	multiplicative noise
0.9221860361	symmetric positive definite
0.9221263738	pac learnability
0.9221067650	item recommendation
0.9220239031	causal effect
0.9219912809	wavelet scattering
0.9219709157	writing style
0.9219499220	inception score
0.9219388434	environmental sound
0.9219333959	strong convexity
0.9219221677	skip gram
0.9219181230	jet substructure
0.9219065153	line search
0.9218576422	data science
0.9217122052	wireless communications
0.9216755571	kullback leibler divergence
0.9216615442	predictive coding
0.9216460744	generative adversarial
0.9216396372	chemical reaction
0.9216075609	icu mortality
0.9215895512	proximal operator
0.9215836300	nonconvex nonconcave
0.9215581815	combinatorial optimization
0.9215031940	spam detection
0.9214846409	long horizon
0.9214625781	big data analytics
0.9214246258	forward backward
0.9213480858	weather forecasting
0.9212861199	error rate
0.9212757149	resting state
0.9212710878	light curves
0.9212251433	mathematical foundation
0.9211670390	organic chemistry
0.9211536409	predictive analytics
0.9210958114	probabilistic programming
0.9210676564	graphical lasso
0.9210539697	absolute percentage error
0.9210521184	dot products
0.9210339064	decision making
0.9210186532	radiation therapy
0.9209673068	authorship attribution
0.9209348562	millimeter wave
0.9209012801	central limit theorem
0.9208260566	linear regressions
0.9207950304	cp decomposition
0.9207767910	local maxima
0.9207150925	false discoveries
0.9206668263	minimum message length
0.9206175089	solar radiation
0.9205714860	amortized inference
0.9204750494	linearly convergent
0.9204072424	social networks
0.9203645541	stealing attacks
0.9203524510	load balancing
0.9201913601	gene ontology
0.9201488530	wake sleep
0.9201389117	adversarial attack
0.9201282139	zeroth order
0.9201272334	piecewise stationary
0.9200605365	inductive logic programming
0.9200440060	trimmed squares
0.9200425944	euclidean distances
0.9200244478	unmanned aerial vehicles
0.9199971019	bipartite graph
0.9198185574	intelligent agents
0.9198032768	autonomous cars
0.9197864572	personalized recommendation
0.9197365680	average treatment effects
0.9195477903	eye movement
0.9195471927	quantum chemistry
0.9195446859	nearest neighbor search
0.9195143238	denoising autoencoders
0.9194953088	operating conditions
0.9194820268	cross lingual
0.9194623504	tree ensembles
0.9194203531	minimax rates
0.9193355366	heavy tailed
0.9193231109	quadrature rules
0.9192970793	parameter estimation
0.9192968090	max pooling
0.9192914369	universal approximator
0.9192465502	divergence minimization
0.9192079133	theoretical justifications
0.9192074747	rna seq
0.9191559710	risk assessment
0.9191479145	linear discriminant analysis
0.9191285552	stein discrepancies
0.9190886104	cycle consistency
0.9190618086	finite horizon
0.9190093743	service provider
0.9189194596	independence tests
0.9189118992	correctly classified
0.9188565285	sites.google.com view
0.9187717414	trace norm
0.9187600977	event sequences
0.9187543171	extended kalman filter
0.9186558501	stein's identity
0.9186302216	data mining
0.9186176463	impulsive noise
0.9185622127	peer grading
0.9185484253	numerical linear algebra
0.9185419309	long tail
0.9184440185	nonparametric regression
0.9183698243	vector autoregressive
0.9183675522	ovarian cancer
0.9183033779	sublinear regret
0.9182523631	physically realizable
0.9182405484	diagonal preconditioning
0.9182006184	colon cancer
0.9181557387	user preference
0.9181524671	dying relu
0.9181504948	bit width
0.9180363594	decision boundary
0.9180155481	base stations
0.9179757540	proximal point
0.9179540086	language modeling
0.9179439648	weak lensing
0.9178768725	batch size
0.9178766244	adversarial vulnerability
0.9178584669	amortized variational inference
0.9178298483	benign overfitting
0.9177785289	quadratic program
0.9177560481	news article
0.9176631252	doubly intractable
0.9175709066	projective simulation
0.9175314249	lottery ticket
0.9175251911	free energy
0.9174733878	transfer learning
0.9174662971	membership inference attacks
0.9174639536	nonconvex penalties
0.9174543106	bias correction
0.9174104649	specialized hardware
0.9173505525	diffusion mri
0.9173481896	latent spaces
0.9173219889	action space
0.9172858649	slice sampling
0.9172461376	spiking neurons
0.9172254808	axis aligned
0.9172225958	catastrophic interference
0.9172216011	screening rules
0.9172186484	breakdown point
0.9171912673	online advertising
0.9171648852	unmanned aerial
0.9171351597	urban traffic
0.9170738234	edge computing
0.9170672937	von mises fisher
0.9170211384	backward pass
0.9170126483	multiarmed bandit
0.9169671432	genome wide
0.9169663688	financial trading
0.9169593162	fully connected
0.9169281417	uplift modeling
0.9169198245	signal recovery
0.9168694915	tensor factorizations
0.9168691291	globally optimal
0.9167417972	concept drifts
0.9166900839	local optima
0.9166509500	face verification
0.9165605064	lower bounds
0.9165539493	dual averaging
0.9165261280	latent factor
0.9165136464	multitask learning
0.9165129397	graph laplacian
0.9164811725	ultrahigh dimensional
0.9164782127	exponential moving average
0.9164710998	parameter server
0.9164299383	multi layer perceptrons
0.9164204060	false discovery
0.9164017561	drug repositioning
0.9163891440	risk averse
0.9163626196	inventory management
0.9163099051	block coordinate
0.9163008146	feedforward neural networks
0.9162648776	smoothing splines
0.9162021182	carefully crafted
0.9160471129	certifiably robust
0.9160351668	united nations
0.9160050636	max margin
0.9159950248	lagrangian relaxation
0.9159569966	log concave
0.9159501320	convex programming
0.9159046584	spike timing
0.9158744090	dice score
0.9158635642	excess risk
0.9157910156	conditional independencies
0.9157601228	coronary artery
0.9157044453	scikit learn
0.9156796279	overcomplete dictionaries
0.9156744318	cardiac mri
0.9156280028	ms coco
0.9156085446	vertically partitioned
0.9155880537	semi supervised
0.9155297672	path planning
0.9155259507	credible intervals
0.9155211187	multiple sclerosis
0.9155030416	markov decision process
0.9154618528	proximal splitting
0.9154396430	timing dependent plasticity
0.9153737186	spoken language
0.9152965253	image inpainting
0.9152962283	imaging genetics
0.9152855028	stochastic subgradient
0.9150065305	united states
0.9149952084	high fidelity
0.9149917626	crude oil
0.9149507045	standard deviation
0.9148986273	iot devices
0.9148950669	object tracking
0.9148587758	benchmark suite
0.9148308346	crowd sourced
0.9148145581	swarm intelligence
0.9148025836	instrumental variables
0.9147966017	linear quadratic regulators
0.9147803841	program synthesis
0.9147658395	electron microscopy
0.9147446928	minority class
0.9147434455	convolution layers
0.9147417032	sequence tagging
0.9147289458	brain tumors
0.9147238289	convex hull
0.9147218586	car racing
0.9147137134	dissimilarity measure
0.9146974549	label noise
0.9146374745	continual learning
0.9146292453	logit pairing
0.9145960252	f1 scores
0.9145758799	nonnegative matrix factorization
0.9144561427	hypercomplex valued
0.9143986408	actor critic
0.9143654413	recidivism prediction
0.9143626252	semantically meaningful
0.9142433915	rank aggregation
0.9142405596	social media posts
0.9142168700	bit quantization
0.9142109245	open ended
0.9141936933	hamming loss
0.9141727300	anderson acceleration
0.9141375170	semantic parsing
0.9141339497	working memory
0.9141105854	user's preference
0.9140640701	bike sharing
0.9140606527	long horizons
0.9140206655	word error rate
0.9139378264	facial recognition
0.9139242694	expected improvement
0.9138912732	partially labeled
0.9138136484	intensive care
0.9138038409	medical image
0.9137440201	widely believed
0.9136663791	character level
0.9136636741	skin lesion
0.9136593058	score matching
0.9136334718	background subtraction
0.9135897967	graph convolution
0.9135048471	sensor readings
0.9134897639	persistence landscape
0.9134586889	game playing
0.9134414827	power law
0.9133838660	language processing
0.9133270551	mri scans
0.9132995936	radio frequency
0.9132946559	bike usage
0.9132561555	epsilon greedy
0.9131560325	document collections
0.9131307951	inducing points
0.9131063392	decision forests
0.9131000866	tabula rasa
0.9130417268	latin hypercube
0.9130333031	wave propagation
0.9130283865	low dose ct
0.9129861414	distribution shift
0.9128702238	microscopy images
0.9128551932	support vector
0.9127945767	convex cone
0.9127334596	long short term memory
0.9127303194	sufficient statistics
0.9127048528	medical image segmentation
0.9126924902	pairwise similarities
0.9126148459	radon transform
0.9126059313	wireless communication
0.9125581281	memory footprint
0.9125023637	music generation
0.9124971749	spectrum sensing
0.9123745216	hyperbolic geometry
0.9123617696	partial observability
0.9123404151	pos tagging
0.9123135002	change point detection
0.9122700648	asymptotic normality
0.9122658596	dynamic mode decomposition
0.9121988551	evidence lower bound
0.9121950291	influence maximization
0.9121564615	communication overhead
0.9121309397	theoretically justified
0.9121275386	cholesky factor
0.9121240261	nonzero entries
0.9121084786	hot water
0.9121031798	route choice
0.9120595493	mobile phones
0.9120439730	frobenius norm
0.9120170206	focal loss
0.9119910147	rare events
0.9119546923	movie ratings
0.9118949596	random fourier features
0.9118873866	reservoir computing
0.9118444089	transmit power
0.9118098001	loss landscape
0.9117598249	square loss
0.9117536526	computationally demanding
0.9116809500	dirichlet allocation
0.9116286351	health insurance
0.9116023014	large scale
0.9115713197	interaction effects
0.9115384898	hyperparameter search
0.9115373999	recurrent neural network
0.9114223742	black box
0.9114137488	mixed membership stochastic blockmodel
0.9112840747	transaction costs
0.9112150074	expert advice
0.9111927231	multilabel classification
0.9111756162	feature attribution
0.9111428190	stein's unbiased risk
0.9111369673	gaussian copula
0.9111229513	human connectome project
0.9110238738	ambiguity sets
0.9110061040	persistence diagram
0.9109791733	maximally informative
0.9109715151	laplacian smoothing
0.9108990706	implicit differentiation
0.9108987179	canonical correlation
0.9108528193	numerical integration
0.9107872827	bit minwise hashing
0.9107671209	latent variables
0.9107664051	wearable sensor
0.9107496622	differential evolution
0.9107347919	clinical practice
0.9106654823	adversarial perturbation
0.9106508153	proximal newton
0.9106216567	alternating linearized
0.9105610562	largely unexplored
0.9105579346	middle ground
0.9105237958	policy improvement
0.9103730436	event detection
0.9103463635	reversible jump
0.9102888616	determinantal point processes
0.9101952528	function approximators
0.9101704081	variational auto encoder
0.9101688305	domain shift
0.9101675515	lie groups
0.9100750004	split merge
0.9099668657	character recognition
0.9098353638	decision makers
0.9097871020	policy evaluation
0.9097546482	mathematical programming
0.9097484976	computationally intensive
0.9097159035	finite difference
0.9097107352	bayesian quadrature
0.9097091907	lecture notes
0.9096914828	fine tuning
0.9096062329	dirichlet process
0.9095377595	mobile robots
0.9095322521	submodular functions
0.9094643305	item response theory
0.9094587773	active learning
0.9094165874	confidence regions
0.9094031094	human beings
0.9093662314	generalization error
0.9093036699	neural net
0.9092953064	approximate bayesian computation
0.9092468429	gene regulatory networks
0.9092404149	frechet inception distance
0.9091906462	generalization gap
0.9091596960	multi agent
0.9091574829	error correction
0.9090681894	los angeles
0.9090549619	ad hoc
0.9090444211	edge devices
0.9090008849	certified defenses
0.9090007568	ising model
0.9089742622	hyperparameter selection
0.9089557390	cascading bandits
0.9089368901	theorem proving
0.9089157685	high energy physics
0.9089045727	mixed integer
0.9088536832	additive noise
0.9088529140	widely accepted
0.9088512457	magnetic field
0.9088448048	probabilistic programming language
0.9088211940	gained popularity
0.9087999747	symbolic music
0.9087974669	smart meters
0.9087183109	exponential smoothing
0.9086725389	synthesized speech
0.9086596265	high throughput
0.9086574621	robot navigation
0.9086447138	decision forest
0.9086274666	recurrent unit
0.9086089070	normalizing constant
0.9086052863	short term
0.9085035993	penalized maximum likelihood
0.9084545794	conjugate gradient
0.9083734892	smart city
0.9083085126	approximate inference
0.9082655575	fine grained
0.9082600637	scientific discovery
0.9082234338	player games
0.9081486385	negative transfer
0.9080414348	visual analytics
0.9080379054	directed graphs
0.9080376252	prohibitively expensive
0.9079673598	user interests
0.9079514614	ctr prediction
0.9079485587	spin glass
0.9078130589	black boxes
0.9077709141	neural networks
0.9077381433	clinically relevant
0.9077196126	sharp minima
0.9076942255	mr images
0.9076094706	fairness notions
0.9075945341	spatio temporal
0.9074525050	hidden markov
0.9074077130	exhaustive search
0.9074060351	math word
0.9074055662	random search
0.9072758889	canonical correlation analysis
0.9072732420	excited state
0.9072700643	molecular dynamics
0.9072674306	gradient flow
0.9072529357	quality assurance
0.9072296720	recent advances
0.9072250768	loss landscapes
0.9071965404	response surfaces
0.9070682447	programming language
0.9069562524	poorly understood
0.9069360083	prediction intervals
0.9069307927	convex concave
0.9068855130	cine mri
0.9068824891	gene regulatory
0.9068762476	conditionally independent
0.9068192354	vc dimension
0.9067837706	recurrent neural
0.9067629339	trading strategies
0.9067082841	missing values
0.9066293234	curriculum learning
0.9066237317	semi definite
0.9066163856	mondrian forests
0.9066041492	reproducible research
0.9065969237	robotic arm
0.9065503767	list decodable
0.9065450071	privacy amplification
0.9065399871	audio source separation
0.9065032546	background knowledge
0.9064730640	noise contrastive estimation
0.9064546705	graphical model
0.9064148263	arrival times
0.9064049975	reserve price
0.9064000795	hand gesture
0.9063675943	low latency
0.9062730724	convolutional networks
0.9062614523	game theory
0.9059582664	odds ratio
0.9059559083	conformal prediction
0.9059303139	image denoising
0.9059300430	neural network
0.9059134923	piano music
0.9059072896	sound event
0.9058723379	matrix variate
0.9058216089	autonomous navigation
0.9057471727	minimax optimal
0.9057233348	explosive growth
0.9057187433	glass box
0.9056714507	sparsity promoting
0.9056697248	sufficient statistic
0.9056455927	laplacian matrix
0.9056336157	ordinal regression
0.9056282518	relu networks
0.9056258831	label shift
0.9055619565	power grid
0.9055616247	pair wise
0.9055463565	hilbert schmidt independence criterion
0.9055432101	user interface
0.9054963093	viral load
0.9054823059	inducing norms
0.9054706895	program repair
0.9054068046	stochastic differential equations
0.9053827940	metric spaces
0.9053696278	stochastic gradient langevin dynamics
0.9053413111	graph coloring
0.9053141259	gradient descent ascent
0.9052988815	unlabeled data
0.9052674729	tree structured
0.9052257390	gaining popularity
0.9051168612	kolmogorov smirnov
0.9050852814	decays exponentially
0.9050697306	robustness verification
0.9050308971	personalized pagerank
0.9050091295	seizure detection
0.9049893714	roc curve
0.9049321357	closed form
0.9049210179	word vectors
0.9048469554	nested dichotomies
0.9047911209	movement primitives
0.9047839817	l1 regularized
0.9047412896	inverse wishart
0.9047064548	causal direction
0.9046711834	earth mover's distance
0.9046443995	sdp relaxation
0.9045764544	surrogate loss
0.9045745575	brute force
0.9045328402	l1 norm
0.9045317018	affinity propagation
0.9045015111	image classification
0.9044565222	stochastic processes
0.9044488605	chinese restaurant
0.9043909753	rademacher complexities
0.9043710909	pearson correlation
0.9043038070	cart pole
0.9042161219	missing data imputation
0.9041728848	implicit regularization
0.9041323860	reject option
0.9041312535	sponsored search
0.9041247432	monte carlo dropout
0.9041201883	normalising flows
0.9041040743	daily life
0.9040832311	web search
0.9040246831	jaccard index
0.9039658903	allocate resources
0.9039651324	traffic sign
0.9039287266	temperature scaling
0.9039151708	asymptotically optimal
0.9038609861	cost sensitive
0.9038560868	power iteration
0.9038437079	multi armed bandit
0.9037980084	straight forward
0.9037874348	graph partitioning
0.9037832854	uncertainty estimation
0.9037219739	moving window
0.9037167659	performs competitively
0.9036958474	sg mcmc
0.9036838402	graph convolutions
0.9036789115	pac bayes
0.9036187353	step sizes
0.9036143304	integral probability metric
0.9036041721	gromov wasserstein
0.9035883990	short term memory
0.9035765788	roc curves
0.9035750551	goal conditioned
0.9035708987	structural damage
0.9035431178	brain decoding
0.9035202287	multinomial probit
0.9034892056	semantic similarity
0.9034733722	atomic norm
0.9033961486	combinatorial explosion
0.9033836334	minimax regret
0.9033669409	cutting edge
0.9033436968	kernel density estimation
0.9032788056	warm starting
0.9032622982	short texts
0.9032463463	separating hyperplane
0.9032177066	principal angles
0.9032037562	replay buffer
0.9031843564	covariance matrix
0.9031817642	categorical variables
0.9031742108	body worn
0.9031654393	bootstrap aggregating
0.9031272332	temporally extended
0.9031138763	kalman filters
0.9030895580	latent factors
0.9030864651	langevin monte carlo
0.9030786028	coarse grained
0.9030663388	multi layer perceptron
0.9030515452	node embedding
0.9029302850	everyday life
0.9028889029	code snippets
0.9028809756	long term
0.9028788204	multiclass classification
0.9028524001	molecular graphs
0.9028250271	post processing
0.9028013248	tuh eeg
0.9027778057	data assimilation
0.9027070651	singular values
0.9026254367	point processes
0.9026102731	subgradient descent
0.9025969032	cover song
0.9025864912	noisy labels
0.9025763101	finer grained
0.9025327972	monte carlo simulation
0.9025284550	event logs
0.9024808042	matrix factorisation
0.9024582745	empirical risk minimizer
0.9024569674	feedback loops
0.9024477056	exploration bonus
0.9024330369	hit song
0.9024093988	dictionary learning
0.9023160635	feature space
0.9022574961	oblique decision
0.9022565748	artificial neural network
0.9022418709	widely recognized
0.9022294960	land surface
0.9022149290	drug resistance
0.9021104604	broadly applicable
0.9020549383	post hoc
0.9020311094	structured sparsity
0.9020081651	kernel machines
0.9019982826	mechanical turk
0.9019885688	safety critical
0.9019844244	mixture density
0.9019635900	proximal policy optimization
0.9019416363	fuzzy logic
0.9019348165	finite width
0.9019304495	quantum mechanical
0.9018777946	tensor ring
0.9018451663	exogenous variables
0.9018207367	secret key
0.9018188289	multi layered
0.9017931199	machine learning
0.9017672914	image retrieval
0.9017318837	fault detection
0.9017212692	agglomerative clustering
0.9017091717	financial transactions
0.9016688948	fairness constraints
0.9016475349	multi armed
0.9016229161	computation offloading
0.9016161846	piece wise
0.9015806496	cubic regularization
0.9015601917	single nucleotide polymorphisms
0.9015454379	causal effects
0.9015366306	null hypothesis
0.9013910098	conditional random fields
0.9013846236	search engines
0.9013582448	mnist digits
0.9013181949	neurodegenerative disease
0.9013000462	cancer patients
0.9012972035	squared error
0.9012858245	integro differential
0.9012615210	bias variance tradeoff
0.9012431585	kernelized stein discrepancy
0.9011747411	conservation laws
0.9011297100	text generation
0.9010468637	variance reduced
0.9010323126	feature map
0.9010133678	deep nets
0.9010112859	electricity price
0.9010108801	comparable corpora
0.9009923452	sinkhorn divergence
0.9009863730	infinitely divisible
0.9009235780	open set
0.9008939298	information theory
0.9008785705	diffusion maps
0.9008370052	frequency domain
0.9007537830	rare event
0.9007532058	intrinsic reward
0.9007195197	metropolis hastings
0.9006294559	nonconvex optimization
0.9006180502	portfolio allocation
0.9005769306	fisher information
0.9005380925	user behavior
0.9004629487	alternating direction
0.9004409294	sensitivity analysis
0.9004143469	neyman pearson
0.9004038280	randomly selected
0.9003916692	function approximator
0.9003527173	ground truth
0.9003409933	user's preferences
0.9001770074	positive definite kernels
0.9001507265	quality assessment
0.9001454934	white box
0.9000704003	distant supervision
0.9000377103	spectrum access
0.9000272393	smart grids
0.8999429623	satellite images
0.8999357496	posterior probability
0.8999324468	treatment effect
0.8998964316	factorization machines
0.8998461777	scattering media
0.8998432121	mutually exclusive
0.8998351783	convex surrogates
0.8998271009	adversely affect
0.8998090841	mini imagenet
0.8997959327	mc dropout
0.8997419773	autoregressive moving average
0.8997399315	interior point
0.8997313095	column subset selection
0.8997193497	teacher student
0.8996149964	tensor product
0.8995805763	root mean square error
0.8995615706	precision matrices
0.8995571489	energy usage
0.8995569199	physically inspired
0.8995181984	group lasso
0.8995058513	combinatorial pure exploration
0.8995005378	nesterov acceleration
0.8994837303	neurological disorders
0.8994702244	gradient clipping
0.8994673991	submodularity ratio
0.8994600836	county level
0.8994212105	decision rules
0.8994090376	vector field
0.8993852609	kolmogorov complexity
0.8993773800	multi modal
0.8993169274	hidden variables
0.8992927501	generative replay
0.8992837920	selection bias
0.8992769021	human activity recognition
0.8992154650	squared exponential
0.8992060049	unsupervised domain adaptation
0.8992007314	wind turbine
0.8991888732	monte carlo tree search
0.8991827329	cell types
0.8991491646	variable importance
0.8991488902	multi scale
0.8990638798	bellman error
0.8990550978	centrality measures
0.8990155741	independent component analysis
0.8989727170	tf idf
0.8989354480	missing entries
0.8989348267	phase diagram
0.8988979016	computationally inexpensive
0.8988252676	smart phones
0.8988189845	support union
0.8987913130	imbalanced datasets
0.8987818264	federated learning
0.8987686243	diffusion processes
0.8987103355	forward pass
0.8986721808	user friendly
0.8986157265	linear quadratic regulator
0.8985774295	semi definite programming
0.8985700844	health records
0.8985474323	convolutional neural network
0.8985045137	resource management
0.8984496770	eigen decomposition
0.8983991870	user experience
0.8983954222	gravitational wave
0.8983411965	performs favorably
0.8983122746	random matrix theory
0.8983017716	auto encoding
0.8982997628	surrogate assisted
0.8982231482	hospital admission
0.8981179452	control variate
0.8980245321	backward propagation
0.8980235278	wi fi
0.8979880228	state space
0.8979721014	principal subspace
0.8979646391	subspace clustering
0.8979392550	mixture model
0.8978892777	notoriously difficult
0.8978885720	response surface
0.8978606581	central server
0.8978446823	large margin
0.8978323053	video frames
0.8977642044	adversarially chosen
0.8977585076	soft actor critic
0.8977385359	fisher rao
0.8977284139	churn prediction
0.8976830403	cell lines
0.8976570253	context aware
0.8976489731	roc auc
0.8976295052	episodic mdps
0.8976285470	manual annotation
0.8976237788	hazard rate
0.8976132459	clinically meaningful
0.8975584268	change detection
0.8975132770	lottery ticket hypothesis
0.8975013107	euclidean spaces
0.8974958140	rotation equivariant
0.8974837171	ct scan
0.8974799023	knowledge graphs
0.8974565427	upper bound
0.8974551824	search engine
0.8974297606	infinite dimensional
0.8973796078	remains elusive
0.8973247436	mortality prediction
0.8972978209	architecture search
0.8972859566	weisfeiler lehman
0.8972635982	link formation
0.8972174997	artificially intelligent
0.8971902330	spanning trees
0.8971859953	kl exponent
0.8971645307	movie recommendation
0.8971634265	polynomial chaos
0.8971173672	bipartite graphs
0.8970695279	knowledge base
0.8970228416	channel coding
0.8969438351	soft thresholding
0.8969354900	mimic iii
0.8968652822	jensen shannon
0.8968056664	stochastic approximation
0.8967760046	meta learner
0.8967593703	resting state functional mri
0.8967416864	stochastic differential equation
0.8967278785	factor analysis
0.8966668191	years ago
0.8966425367	action recognition
0.8965968355	super learner
0.8965735119	bin packing
0.8965567014	integrated circuits
0.8965391964	quantum circuit
0.8964915904	ablation studies
0.8964330036	variational approximations
0.8963718821	predictive modeling
0.8963608875	highly imbalanced
0.8963437635	feed forward
0.8963421004	pure exploration
0.8963287094	personalized recommendations
0.8963108384	pose estimation
0.8963058157	polya gamma
0.8962639212	explainable artificial intelligence
0.8962554376	covariance function
0.8962552504	mel spectrogram
0.8961635107	exploding gradients
0.8961364025	tsetlin machine
0.8961277514	decision maker
0.8960745839	boundary conditions
0.8960535273	probabilistic programs
0.8960207406	conditional dependence
0.8960084253	manually annotated
0.8959851481	classifier chains
0.8959846762	speech waveform
0.8959549568	frequency bands
0.8959530906	exploration exploitation
0.8959273219	bitcoin price
0.8958910667	person identification
0.8958794906	open access
0.8958502687	drug sensitivity
0.8958425874	cyber physical
0.8958138745	bayesian optimization
0.8957800602	oracle inequalities
0.8957045927	learning rate schedule
0.8956761637	measurement noise
0.8956673954	markov decision
0.8955993767	dynamic regret
0.8955983256	traffic lights
0.8955960050	daily lives
0.8955840898	squared loss
0.8955167965	vector spaces
0.8955141911	masked language
0.8954518501	previously published
0.8954458097	logistic regressions
0.8954229687	global optimality
0.8954208059	graphon estimation
0.8953760483	locally connected
0.8953518474	traffic signal control
0.8953495557	fokker planck equation
0.8953437210	disentangled representation
0.8953342137	sentiment classification
0.8952769395	targeted advertising
0.8952501249	covariance estimation
0.8952310220	gauss newton
0.8952200684	diagnosis codes
0.8952066992	frank wolfe
0.8951797546	cryo em
0.8951163837	low precision
0.8950790359	naturally occurring
0.8950605614	euclidean space
0.8950277551	replay memory
0.8949919913	readmission risk
0.8949905466	error correcting codes
0.8949583487	pure pixel
0.8949562893	summary statistic
0.8949512357	stroke patients
0.8949456691	convolutional neural networks
0.8949318612	burer monteiro
0.8948916033	cramer rao
0.8948744277	radiation dose
0.8948634567	pareto optimal
0.8947780845	stochastic gradients
0.8947745125	joint diagonalization
0.8947663372	binding sites
0.8947499270	autonomous systems
0.8947439776	high stakes
0.8947383513	distribution shifts
0.8947271548	high dimensional
0.8946931632	multi head attention
0.8946816731	mode seeking
0.8946559081	ideally suited
0.8946516601	slowly varying
0.8946085130	real nvp
0.8945957630	strongly concave
0.8945880258	conditional independences
0.8945598101	bayes risk
0.8945350523	cross sectional
0.8944743907	fourier transforms
0.8944715038	evaluation protocol
0.8944557586	causal discovery
0.8944054979	relevance determination
0.8943103208	inequality constraints
0.8942613416	digital pathology
0.8942158820	directed acyclic graphical
0.8941381837	directed hypergraph
0.8941091452	statistically significant
0.8940841856	ode solvers
0.8940714803	variational auto encoders
0.8940503021	paired comparisons
0.8940369249	point process
0.8939959575	rademacher averages
0.8939891396	eigenvalue decomposition
0.8939614025	medium sized
0.8939576799	monte carlo integration
0.8939308669	pixel wise
0.8938752563	weight update
0.8938315461	state transitions
0.8937530086	gated recurrent
0.8937459492	spectro temporal
0.8937322058	clinical decision support
0.8937198710	psychiatric disorders
0.8937088477	decentralized execution
0.8936850795	concept drift detection
0.8936269543	cognitive science
0.8936193597	social network
0.8935477154	heavy tail
0.8935248993	random seeds
0.8935027157	permuted mnist
0.8934787206	conversion rate
0.8934418122	sleep stages
0.8933616342	pseudo likelihood
0.8932859566	bradley terry luce
0.8932729737	vice versa
0.8932494926	likelihood ratio
0.8932460946	np hard
0.8931946487	converges linearly
0.8931661811	semi parametric
0.8931589914	knowledge base completion
0.8931423018	cox proportional
0.8931411377	likelihood ratio test
0.8931173448	individually fair
0.8930980073	recent developments
0.8930770455	factorial hidden markov
0.8930645713	l0 norm
0.8930624328	document classification
0.8930503388	bi directional
0.8930225281	switching cost
0.8930025931	bandit algorithms
0.8929502375	distributionally robust optimization
0.8928793822	base learner
0.8928767463	shift invariant
0.8928558040	distance metric
0.8928401444	channel pruning
0.8928293423	fused gromov wasserstein
0.8928150489	risk stratification
0.8928105703	normal distribution
0.8927708621	equal opportunity
0.8927371859	neural architecture search
0.8926368399	appropriately chosen
0.8926339266	option critic
0.8926023340	covariate shifts
0.8924906970	mini batches
0.8924456320	scene understanding
0.8924212130	hive cote
0.8924176490	spoofing attacks
0.8924168840	stable spline
0.8924138826	connectionist temporal classification
0.8923997878	walsh hadamard
0.8923937339	widely applicable
0.8923680124	martingale difference
0.8923519623	neural tangent kernel
0.8923451055	literature review
0.8923254305	open sourced
0.8923244820	density ratio
0.8923221373	ab initio
0.8923109258	incorrectly classified
0.8923065448	proximal gradient
0.8923040819	text corpora
0.8922852559	convergence rate
0.8922684110	sum product
0.8921690078	group equivariant
0.8920668790	generative adversarial networks
0.8920572421	single cell
0.8920210347	mover's distance
0.8920192915	area under roc curve
0.8919787594	streaming data
0.8919397538	separable nmf
0.8919264881	building blocks
0.8919114758	raw audio
0.8919059081	worth noting
0.8918730416	feature interactions
0.8918721087	multinomial logistic regression
0.8918493319	sparse pca
0.8918465415	disease diagnosis
0.8918284037	graph embedding
0.8918220269	infinite mixture
0.8918184442	road segments
0.8917667848	multi armed bandits
0.8917535098	global optimum
0.8916967141	inducing inputs
0.8916643428	disentangled representation learning
0.8916021608	archetypal analysis
0.8915682987	stochastic optimization
0.8915414960	robustness certificates
0.8915277364	cell type
0.8915185722	tree ensemble
0.8915176969	vector space
0.8915053205	visual reasoning
0.8915037476	grid cells
0.8914901695	replica symmetric
0.8914838323	lower bound
0.8914672947	relu activation
0.8914363373	linear separators
0.8914056569	goal directed
0.8913747812	loss functions
0.8912755090	urban areas
0.8912332750	integer valued
0.8911491042	noise tolerant
0.8911157671	resource constrained
0.8910952275	recurrent networks
0.8910710535	label smoothing
0.8910075615	scientific disciplines
0.8909198746	minor modifications
0.8908997554	rbf kernels
0.8908863726	distributional shifts
0.8908747841	sparse signal recovery
0.8908690309	sparsifying transforms
0.8908381991	structural health monitoring
0.8908229048	kinetic energy
0.8907969937	scientific articles
0.8907738878	carefully chosen
0.8907452888	complex valued
0.8907309657	automatic sleep staging
0.8907169763	residual networks
0.8906897811	progressive growing
0.8906655620	probabilistic inference
0.8906653799	driving styles
0.8906388499	roughly speaking
0.8906116715	observational data
0.8906116152	constraint violation
0.8905302828	fake news detection
0.8903841913	force fields
0.8903797670	echet inception distance
0.8903702830	nesterov's smoothing
0.8903634367	theoretically grounded
0.8903609488	weather forecasts
0.8903365170	hypothesis space
0.8903235142	cross domain
0.8902864371	weight updates
0.8902734867	chow liu
0.8902592752	auxiliary variables
0.8902554354	image synthesis
0.8902130644	markov processes
0.8901681510	open source
0.8901420125	reaction diffusion
0.8901295693	status quo
0.8901129095	accelerated proximal gradient
0.8900533469	signature verification
0.8899999004	penalized regression
0.8899850706	randomly chosen
0.8899503389	mission critical
0.8899298829	mobile devices
0.8899155604	compactly supported
0.8899141606	computationally cheap
0.8898796345	starcraft ii
0.8898477040	sales forecasting
0.8898409861	provable guarantees
0.8898144912	inexact proximal
0.8897749244	leverage score sampling
0.8897405415	dynamic routing
0.8897006294	audio tagging
0.8896987094	stock markets
0.8896982293	audio waveforms
0.8896974074	api calls
0.8896597333	mass spectra
0.8896479106	hardware friendly
0.8896238023	imbalanced data
0.8895960758	compares favourably
0.8895870507	valence arousal
0.8895781426	gradient tree boosting
0.8895403854	linear bandits
0.8895323366	spectral embedding
0.8895278834	orthogonality constraint
0.8895016921	security concerns
0.8894640913	measurement error
0.8894543803	revenue management
0.8894506007	drug drug interactions
0.8894362148	automated driving
0.8893999798	norm regularization
0.8893856241	feature extractors
0.8893640854	fast fourier transform
0.8892985695	nonparametric bayesian
0.8892930830	condition number
0.8892859566	plackett luce
0.8892714606	traffic light
0.8892662913	object centric
0.8892655257	generative modelling
0.8892380704	rotation equivariance
0.8892321904	multinomial logistic
0.8891743027	molecule generation
0.8891487167	en route
0.8891199318	logic reasoning
0.8890889700	deviation inequalities
0.8890729877	membership inference
0.8890344463	stochastic volatility
0.8889918730	hamilton jacobi bellman
0.8889548417	real valued
0.8889141508	big data era
0.8889054980	initial guess
0.8888918099	convex polytopes
0.8888515807	scoring functions
0.8887450438	kullback leibler
0.8886848663	strict saddle
0.8886479482	moving objects
0.8885266622	upper bounds
0.8885175627	entropy regularization
0.8884680639	differential operators
0.8884523993	arc length
0.8884266500	observational studies
0.8883652517	test bed
0.8883517153	deep reinforcement
0.8883411618	driver assistance
0.8883163687	error bounds
0.8883102108	hierarchical dirichlet process
0.8882920642	weight pruning
0.8882886118	max min
0.8882764412	rotated mnist
0.8882692269	universal approximation property
0.8882584343	rapidly growing
0.8882543244	takes place
0.8882058428	loss minimization
0.8881524260	rare diseases
0.8881463442	healthy subjects
0.8881204400	vector quantization
0.8881112169	basis functions
0.8880833465	low degree polynomials
0.8880718841	cluster validity indices
0.8880668121	policy search
0.8880657736	attention heads
0.8880598023	density functional theory
0.8880361984	natural language understanding
0.8880168544	recurrent neural networks
0.8880116342	nonlinear ica
0.8879593481	chemical space
0.8879301641	stochastic block model
0.8879295751	paragraph vectors
0.8878875106	visual concepts
0.8878631862	normalized cut
0.8878390684	robot manipulation
0.8878372978	average treatment effect
0.8877858562	dirichlet multinomial
0.8877560917	partial monitoring
0.8877456560	visual question answering
0.8877447240	yield curve
0.8876872043	mathematical foundations
0.8876805571	sliding windows
0.8876461629	uniformly bounded
0.8876373944	specially designed
0.8876177349	energy harvesting
0.8876063933	amino acids
0.8875912309	slight modification
0.8875700569	hyperspectral imaging
0.8875200127	submodular function
0.8875005505	temporal dependency
0.8874922379	rule induction
0.8874727126	obstacle avoidance
0.8874619240	l2 regularization
0.8874530958	single shot
0.8874275404	general purpose
0.8873476262	multi view
0.8873383821	validation set
0.8872646513	force field
0.8872514343	long standing
0.8872269040	banach space
0.8872251906	extended kalman
0.8872108024	neural odes
0.8872020829	mistake bound
0.8871838862	chaotic dynamical systems
0.8871592262	factor graphs
0.8871139928	widely adopted
0.8871031003	adjacency matrix
0.8870855687	robustness certificate
0.8870835061	gray box
0.8870620901	human understandable
0.8870546409	conventional wisdom
0.8870425174	adverse event
0.8870089143	labor intensive
0.8869760402	permutation invariance
0.8869623915	stationary points
0.8869606213	weight consolidation
0.8869568125	bleu score
0.8869408778	cosine distance
0.8868982857	induced subgraph
0.8868785990	verifiably robust
0.8867834386	risk measures
0.8867793489	graph convolutional
0.8867666804	hessian free
0.8867462377	markov jump
0.8867123529	crowd counting
0.8866723824	vector valued
0.8866721750	fine tunes
0.8866641591	reaction pathways
0.8866290340	order book
0.8866257981	regret bounds
0.8865914743	hessian sketch
0.8865833380	privacy budget
0.8865712880	visual recognition
0.8865701887	finite sums
0.8865698366	goal oriented
0.8865565974	pareto frontier
0.8865476129	stale gradients
0.8865378092	genetic variants
0.8865009316	adjacency matrices
0.8864740545	transportation mode
0.8864268261	remains unclear
0.8864025306	offline rl
0.8863651898	policy iteration
0.8863252287	gamma ray
0.8862939283	working set
0.8862935331	sparsity inducing
0.8862891429	iteration complexity
0.8862682863	credit card fraud detection
0.8862612063	class separability
0.8862598355	hidden unit
0.8862308156	decision processes
0.8862270266	biologically motivated
0.8862193305	weighting scheme
0.8862074833	heart diseases
0.8862028687	bio inspired
0.8861674690	anchor points
0.8861572467	multi step ahead
0.8861051738	cluster assignments
0.8860305441	synthetic minority
0.8859761428	road safety
0.8859573211	synthetically generated
0.8859226448	affective computing
0.8858943440	reactive power
0.8858834856	inverse reinforcement learning
0.8857927332	vapnik chervonenkis
0.8857802544	overestimation bias
0.8857385573	concentration inequality
0.8856895073	multi fidelity
0.8856666635	extreme learning machine
0.8856579669	sentence level
0.8856407561	domain shifts
0.8856199173	regularity conditions
0.8855817964	lookup tables
0.8855487449	cma es
0.8854008767	van der
0.8853838021	membership inference attack
0.8853165992	tighter bounds
0.8853032730	tsybakov noise
0.8852473320	breast cancer screening
0.8852130099	smallest eigenvalue
0.8851609275	computational fluid dynamics
0.8851518176	opinion mining
0.8851417737	mobile sensing
0.8851186760	step size
0.8851065924	multi stage
0.8850879714	worst case
0.8850732885	wrist worn
0.8850352651	latent position
0.8850103578	element wise
0.8849671902	natural disasters
0.8849348986	feedback loop
0.8849284074	expressive power
0.8849208751	subgroup discovery
0.8849166191	ramp loss
0.8848959435	automatic speaker verification
0.8848691046	motion capture
0.8848675711	dictionary atoms
0.8848556127	low rankness
0.8848376941	high order
0.8847540968	house price
0.8847497063	energy consumption
0.8847123418	contrastive learning
0.8846909637	road network
0.8846416618	transport plan
0.8845793852	natural scenes
0.8845702021	transition matrix
0.8845571745	fully decentralized
0.8845397799	google cloud
0.8845395527	global optimization
0.8845330097	dirichlet process mixture
0.8844918439	douglas rachford
0.8844607848	theoretical foundation
0.8844204996	tumor segmentation
0.8843690309	nesterov accelerated
0.8843606597	computationally prohibitive
0.8843529762	capsule network
0.8843351421	dna sequence
0.8843154873	newly introduced
0.8842052961	brain imaging
0.8841681242	compound poisson
0.8841500857	iteratively reweighted
0.8840972392	smiles strings
0.8840788981	air quality monitoring
0.8840091124	label proportions
0.8839729541	wasserstein metric
0.8839416567	sample complexity
0.8839114995	byzantine failures
0.8838835221	channel state information
0.8838579079	portfolio optimization
0.8838429193	barzilai borwein
0.8838382720	computationally infeasible
0.8838207521	component analysis
0.8837732444	individual fairness
0.8837699811	base learners
0.8837661911	hash functions
0.8837347714	privacy guarantees
0.8837320932	conjunctive clauses
0.8836834831	single neuron
0.8836705771	principal curves
0.8836438215	regression trees
0.8836186544	neuro fuzzy
0.8836150992	autoregressive flows
0.8836129338	gradient boosted
0.8836081643	carlini wagner
0.8835926120	ground truths
0.8835799170	convolutional neural
0.8835654265	epileptic seizures
0.8835626655	nonlinear dynamical systems
0.8835505393	individual treatment effect
0.8835210144	submodular optimization
0.8835021420	fairness definitions
0.8834890464	causal relations
0.8834763842	cardiovascular diseases
0.8834627212	function approximation
0.8834455834	domain specific
0.8834007979	convergence rates
0.8833943476	speech signals
0.8833518730	perron frobenius
0.8833275354	root mean squared error
0.8832901299	recurrent units
0.8832377164	preference elicitation
0.8832342291	information bottleneck
0.8832317815	faithfulness assumption
0.8831982939	knowledge tracing
0.8831263552	grow exponentially
0.8830463141	continuous control
0.8830224687	coding schemes
0.8830160393	storage requirements
0.8830096831	national institute
0.8828894222	kernel ridge
0.8828840065	lyapunov function
0.8828290731	heat equation
0.8828103699	instance segmentation
0.8827867375	compounding errors
0.8827862264	randomly sampled
0.8827829008	delayed rewards
0.8827819506	air conditioning
0.8827751826	latent representations
0.8827718807	safe screening
0.8827676337	speech separation
0.8827511726	low resource
0.8827493956	locality preserving
0.8827398561	decision support
0.8827144395	materials science
0.8826460511	principal component pursuit
0.8825884952	machine teaching
0.8825612605	policy makers
0.8825569970	proximal mapping
0.8825507268	protected attribute
0.8825213315	wide adoption
0.8824967699	hypergraph partitioning
0.8824897608	low cost
0.8824817103	gating mechanism
0.8824396120	brain regions
0.8824337988	renyi entropy
0.8824092790	secure multi party
0.8823845269	neuromorphic hardware
0.8823516771	reproducing kernel banach
0.8822823523	constrained optimization
0.8822174367	public transport
0.8821854470	ct images
0.8821844566	deep neural networks
0.8821149805	long short term
0.8821074897	strongly convex
0.8821028824	differential geometry
0.8821012878	vector machine
0.8820197476	hand gestures
0.8819912165	massart noise
0.8819628897	gaussian graphical
0.8819071081	interval bound propagation
0.8818135999	pursuit evasion
0.8817289819	differential entropy
0.8816916849	technological advances
0.8815839811	convolutional layers
0.8814812612	bayesian optimisation
0.8814730345	past experiences
0.8814569615	deep belief networks
0.8814569489	james stein
0.8814533221	evolution strategies
0.8814419366	win win
0.8814082039	spiking neural networks
0.8813221426	low rank matrix recovery
0.8813158631	performs comparably
0.8813082660	image registration
0.8812733228	junction trees
0.8812406989	multi task
0.8812353258	logical reasoning
0.8812269013	computationally efficient
0.8811849426	compares favorably
0.8811791174	stochastic mirror descent
0.8811511605	tabular data
0.8810245671	speed ups
0.8810019525	symbolic regression
0.8809787432	mondrian forest
0.8809638775	causal structures
0.8809593185	social interactions
0.8809495216	chi squared
0.8809424777	massive open online courses
0.8808960351	security threats
0.8808848503	intensively studied
0.8808790755	integral operator
0.8808663185	trimmed lasso
0.8808096176	support vectors
0.8808053325	trf lms
0.8807934445	pixel level
0.8807812999	protein folding
0.8807748745	cell line
0.8807735293	regret lower bound
0.8807648811	sequential monte carlo
0.8807567625	query complexity
0.8807560760	personality traits
0.8807372895	specially crafted
0.8807331158	stein variational gradient descent
0.8806763980	probability measures
0.8806663746	inhomogeneous poisson
0.8806627315	aff wild
0.8806134636	sufficient dimension reduction
0.8805933468	revenue maximization
0.8805362930	deviation bounds
0.8805334385	travel times
0.8805234263	taylor expansions
0.8805170197	computationally tractable
0.8805068591	solar power
0.8804861807	bandit problems
0.8804759253	rotation forest
0.8804552478	quaternion valued
0.8804549906	negative sampling
0.8804520435	stochastic variational inference
0.8804355412	people's lives
0.8804339917	l1 regularization
0.8804227926	deep learning
0.8804151298	decades ago
0.8804150085	upper confidence bounds
0.8803884665	graph matching
0.8803724826	grid world
0.8803026472	dependency structures
0.8802735231	generative adversarial network
0.8802408038	rs fmri
0.8802295734	pseudo labeling
0.8801781309	arithmetic operations
0.8801171434	open loop
0.8801170399	road traffic
0.8801167040	independence testing
0.8800605045	parity check
0.8799904168	error rates
0.8799609493	speaker identification
0.8799545984	missing data
0.8799275570	price auctions
0.8799267480	restless bandit
0.8799149118	alpha divergences
0.8799133481	information extraction
0.8798900147	kernel herding
0.8798219306	reinforcement learning
0.8798011708	poly logarithmic
0.8797997760	video frame
0.8797585915	skew normal
0.8797305441	widespread adoption
0.8796989953	probability distributions
0.8796859624	stochastic variance reduced gradient
0.8796469783	model misspecification
0.8796331333	armijo's condition
0.8796182946	computational biology
0.8795826408	audio recordings
0.8795666167	byzantine resilience
0.8795324389	rate distortion
0.8794900704	risk management
0.8794781964	cumulative gain
0.8794666685	hotspot detection
0.8794554836	markov games
0.8794514523	deep neural nets
0.8794252226	pseudo rehearsal
0.8793891137	nesterov's accelerated gradient
0.8793002293	exponentially decaying
0.8792460579	counter intuitive
0.8791944215	chain graphs
0.8791654308	adversarial training
0.8791646147	check ins
0.8791321228	assortment planning
0.8791223089	task agnostic
0.8791203629	model selection
0.8790402049	slow feature analysis
0.8789806218	spiking neuron
0.8789603035	interactive visualization
0.8789595003	convex functions
0.8788880307	quantum chemical
0.8788852801	feature spaces
0.8788754472	t1 weighted
0.8788614189	bandit problem
0.8788511899	cluster enumeration
0.8788459370	sequence generation
0.8788228594	vehicle trajectory
0.8788123622	upper confidence
0.8787495302	reparameterization gradients
0.8787437370	bidirectional encoder
0.8787136506	cyber physical systems
0.8786710001	fairness criteria
0.8785740689	task oriented
0.8785109609	linear classifiers
0.8784405902	density estimator
0.8783938259	context dependent
0.8783475618	overcoming catastrophic forgetting
0.8783278141	information gain
0.8783175700	stability selection
0.8782513858	unsupervised anomaly detection
0.8782389961	minimum norm
0.8782159742	rating prediction
0.8781812686	feature relevance
0.8781803687	hidden nodes
0.8781790189	crowd sourcing
0.8781729444	meta learners
0.8781553922	feedforward networks
0.8781000257	supervised classification
0.8780645533	multi label
0.8780441308	robustness certification
0.8780428262	graph cut
0.8780254227	scale invariant
0.8779810622	dempster shafer
0.8779656569	multi objective
0.8779653821	winning ticket
0.8779168105	permutation testing
0.8778838790	uniform hypergraphs
0.8777816264	schatten quasi
0.8777601735	regularization path
0.8777552810	grad cam
0.8777360381	parameter tuning
0.8776967056	pairwise distances
0.8776933974	decision tree induction
0.8776647819	density ratio estimation
0.8776621137	music transcription
0.8776157464	cyber attack
0.8775952600	word representations
0.8775449099	speaker adaptation
0.8774995375	drug design
0.8774936405	board games
0.8774201865	policy optimization
0.8773914990	socio economic
0.8773580632	precision recall
0.8773198709	human judgment
0.8773151487	origin destination
0.8772998175	entry wise
0.8772738478	provably robust
0.8772376863	recursive feature elimination
0.8772276480	deep neural network
0.8772169288	fid scores
0.8771945990	operator norm
0.8771717236	subject matter
0.8771494669	partially observable environments
0.8771149663	structured prediction
0.8771020340	em algorithm
0.8770867045	universal approximation
0.8770859975	domain knowledge
0.8770635112	overly conservative
0.8770574980	common sense
0.8770534235	high level
0.8770226961	label flipping
0.8769941921	max norm
0.8769315905	knowledge graph
0.8768212557	dose response
0.8767554511	multi layer
0.8767499309	tangent space
0.8767144669	incremental aggregated gradient
0.8767041619	cell nuclei
0.8766988630	cell populations
0.8766600843	intra class
0.8766598857	bias amplification
0.8766576834	graph cuts
0.8766389379	reward functions
0.8765985414	fixed point
0.8765802660	resource intensive
0.8765604898	risk sensitive
0.8765591860	erdos renyi
0.8765591860	polyak ruppert
0.8765291725	randomized sketching
0.8765207238	update rule
0.8764889907	variable length
0.8764812958	definite matrices
0.8764625957	contextual information
0.8764223411	mobile edge computing
0.8764100203	input output
0.8763706830	multi hop
0.8763482618	laplace approximation
0.8763151968	offline evaluation
0.8762187976	wasserstein gans
0.8762116363	gram matrices
0.8762016835	histopathological images
0.8761948296	streaming pca
0.8761659456	supervised learning
0.8761420864	hidden units
0.8761370300	stopping criteria
0.8760927729	hamiltonian dynamics
0.8760801986	combinatorial semi bandits
0.8760626547	node classification
0.8760124939	low degree
0.8759995623	implicit feedbacks
0.8759842286	visual inspection
0.8759797148	rbf kernel
0.8759741271	youtube videos
0.8759724513	confidence bounds
0.8759705549	tsk fuzzy
0.8758967406	dice similarity
0.8758740321	arrive sequentially
0.8758615520	reproducing kernels
0.8758251028	cooperative game theory
0.8757872730	deep belief network
0.8757733599	action sequences
0.8757612527	search spaces
0.8757160055	brain signals
0.8756160051	gold standard
0.8755805812	gpu hours
0.8755685468	probabilistic programming languages
0.8755596907	loss function
0.8755412470	global convergence
0.8754840732	infra marginality
0.8754526274	chemical properties
0.8754221965	speaker embedding
0.8754069494	resting state fmri
0.8753959682	space filling
0.8753694326	sequence labeling
0.8753487948	wasserstein gan
0.8753214894	smart home
0.8753140620	machine unlearning
0.8752091852	mixed precision
0.8751953148	collective motion
0.8751947006	nonlinear dynamics
0.8751429348	low dimensional
0.8751326890	support vector regression
0.8751267870	final iterate
0.8751198738	entropy regularized
0.8751095396	genetic algorithms
0.8750928322	privacy preservation
0.8750609192	extreme weather
0.8750572684	stochastic variance reduced
0.8749893712	short term load forecasting
0.8749646624	water resources
0.8749513968	robbins monro
0.8749429584	open set recognition
0.8749397294	sequential decision making
0.8748854408	integer linear programming
0.8748337432	driver behavior
0.8747635748	information leakage
0.8747476455	layer wise
0.8747335827	numerically stable
0.8747218936	vertical federated learning
0.8746772450	uniformly stable
0.8746579784	continuum armed bandits
0.8746504214	changing environments
0.8746498799	multi level
0.8746192240	neuron activations
0.8746025558	integrated gradients
0.8745423695	sample size
0.8745412273	hidden states
0.8744773415	life threatening
0.8744537638	cone beam
0.8744451685	forward passes
0.8744303113	hidden layers
0.8744082906	gauss seidel
0.8744082906	laplace beltrami
0.8743869271	matrix decomposition
0.8743554837	leading eigenvectors
0.8742903406	cancer types
0.8742814430	quadratically constrained
0.8742596032	document summarization
0.8742581981	collapsed variational inference
0.8742476371	structural similarity
0.8742376932	joint distribution
0.8742237334	analytically tractable
0.8742191724	neuron activation
0.8741645495	counterfactual fairness
0.8740782373	human readable
0.8740752074	language modelling
0.8740527992	heterogeneous treatment effect
0.8740075359	om approximation
0.8739139948	robot arm
0.8738664718	portfolio selection
0.8738652212	test statistic
0.8738429074	armed bandit
0.8738010564	icu admission
0.8737580938	episodic reinforcement learning
0.8737489311	naive bayes classifier
0.8736271118	deep generative
0.8736244630	johnson lindenstrauss
0.8735921523	finite sum
0.8735445941	bayesian model averaging
0.8735310391	low snr
0.8735193907	quadratic regulator
0.8735130752	bike flow
0.8735067609	exact inference
0.8734822850	online convex optimization
0.8734462197	imaging modality
0.8734441724	convex regularizers
0.8734119357	seamlessly integrated
0.8733920101	computationally expensive
0.8733904721	nsl kdd
0.8733698031	receiver operating
0.8733222909	unseen classes
0.8732956664	error correcting output
0.8732369585	hyper parameters
0.8732356404	weather stations
0.8732212695	autoregressive flow
0.8732140503	grey box
0.8731889559	small variance asymptotics
0.8731755588	high snr
0.8731560543	validity index
0.8731469587	feature vectors
0.8731285511	lp relaxation
0.8730988648	conditional independence tests
0.8730847104	imbalanced classification
0.8729802779	probability density functions
0.8729676287	proximal operators
0.8729672457	particle gibbs
0.8729482029	greedy algorithm
0.8729294212	protein sequences
0.8729166533	brain functional connectivity
0.8728815354	recovery guarantee
0.8728772864	finite automata
0.8728760313	dialog state tracking
0.8728476126	adverse drug
0.8728453461	cryo electron microscopy
0.8728057191	intellectual property
0.8727487602	hardware accelerator
0.8726871914	high frequency
0.8726581037	speaker identity
0.8726313452	weight normalization
0.8726268650	statistically indistinguishable
0.8726146055	gpu acceleration
0.8726092484	natural gradient
0.8725724377	count sketch
0.8725680738	product reviews
0.8725607242	community memberships
0.8725154266	average reward
0.8725153196	sufficiently accurate
0.8724935768	marked temporal point
0.8724857039	multiobjective optimization
0.8724510068	brain tissue
0.8724321990	scoring rule
0.8724142879	diffusion equation
0.8724063174	robust pca
0.8723727385	graph convolutional networks
0.8723689272	open source software
0.8723471549	speech emotion recognition
0.8723310103	diabetic patients
0.8722850441	log likelihood
0.8722292157	agglomerative hierarchical clustering
0.8722256277	odinger equation
0.8722162519	resource utilization
0.8721977347	crowdsourced labels
0.8721726754	software packages
0.8721651936	permutation equivariance
0.8721261744	human body
0.8720777474	absolute error
0.8720769965	bidirectional long short term memory
0.8720664116	event triggered
0.8720597329	crystal structures
0.8720444644	distance correlation
0.8719924274	gradient norm
0.8719674944	matrix recovery
0.8719586607	bradley terry
0.8719449396	intrusion detection systems
0.8719092538	multi class
0.8718819816	change point
0.8718593409	fisher discriminant
0.8717460919	data driven
0.8717283368	approximate bayesian inference
0.8717009036	manipulation tasks
0.8717004118	convergence guarantee
0.8716968419	scoring function
0.8716950014	medical image analysis
0.8716915403	hand crafting
0.8716225192	quantum inspired
0.8716139713	strongly correlated
0.8715948170	cancer cell lines
0.8715816985	hoeffding tree
0.8715607436	random survival forest
0.8715351230	leverage scores
0.8714919036	latent representation
0.8714801511	cardinality constraint
0.8714105541	critical points
0.8714100761	bandit setting
0.8713468722	exponential growth
0.8713325777	excellent agreement
0.8713042637	travel behaviour
0.8712899964	certainty equivalent
0.8712677365	unsupervised learning
0.8712427344	tropical geometry
0.8712107758	multi tenant
0.8711621663	dataset shift
0.8711547212	developing countries
0.8711528178	received signal strength
0.8711510604	bayes optimal
0.8711079254	equality constraints
0.8710517786	support vector data description
0.8710407009	detecting anomalous
0.8710400050	emergent communication
0.8710158501	theoretical justification
0.8709962505	model predictive control
0.8709331872	risk prediction
0.8709085550	complementary strengths
0.8709014743	data stream
0.8708632736	random fields
0.8708624059	prohibitively slow
0.8708499850	adversarially perturbed
0.8707945305	confidence level
0.8707762631	smoothing spline
0.8707685877	oracle inequality
0.8707608090	computational burden
0.8707327984	likelihood free
0.8706973173	hyperbolic embeddings
0.8706886868	closely related
0.8706258555	inertial measurement
0.8706135430	posteriori estimate
0.8705722714	domain agnostic
0.8705704569	physical systems
0.8705630105	prediction error
0.8705169699	polyak lojasiewicz
0.8705111785	voxel wise
0.8704901092	adverse outcomes
0.8704882036	leaky relu
0.8704164692	linear inverse problems
0.8704042481	gram matrix
0.8703693590	regularized loss minimization
0.8703339631	kernel bandwidth
0.8703218565	genomic data
0.8703074244	converges globally
0.8702735340	street view
0.8702583516	proximity operator
0.8702514383	neuro symbolic
0.8702490184	safety constraints
0.8702473486	sobolev spaces
0.8702292675	block admm
0.8702075643	failure mode
0.8701800517	binary classifiers
0.8701578202	randomized trials
0.8701353693	brain activity
0.8700728791	degree corrected
0.8700719576	pan cancer
0.8700623572	lidc idri
0.8700523802	risk scores
0.8699979470	total variation denoising
0.8699190520	analytical expression
0.8699113099	hilbert schmidt
0.8699007233	block wise
0.8698659651	dr submodular maximization
0.8698582773	markov equivalent
0.8698193541	visual scenes
0.8697743110	main theorem
0.8696755112	statistical learning theory
0.8696432694	sliced wasserstein distance
0.8695915710	communication rounds
0.8695679002	positive definite matrices
0.8695614408	error tolerance
0.8695514465	principle component analysis
0.8695111363	anomaly score
0.8694902806	transformer xl
0.8694854963	fine tune
0.8694746963	molecular property prediction
0.8694449751	runge kutta
0.8694354374	transcription factor
0.8694121137	entity linking
0.8693798417	l1 l2
0.8693288902	recovery guarantees
0.8693004112	broad applicability
0.8692925987	nas bench
0.8692899106	traffic volume
0.8692885866	likelihood free inference
0.8692402869	percentage points
0.8692370045	nonconvex nonsmooth
0.8692240940	event occurrence
0.8692022657	travel mode
0.8691690891	pseudo marginal
0.8691512600	exploration exploitation dilemma
0.8691098755	square error
0.8691064471	mode connectivity
0.8689944147	trust region policy optimization
0.8689815324	complementary label
0.8689758736	auxiliary task
0.8689641192	fokker planck
0.8689638521	partial dependence plots
0.8689438594	stochastic dual coordinate ascent
0.8689338932	partition function
0.8689225856	pre processing
0.8689139356	affine invariant
0.8689092629	poisson processes
0.8688929825	margin maximization
0.8688229215	multi variate
0.8687952412	cumulative reward
0.8687813006	tubal rank
0.8687601375	cross validated
0.8687522259	feature transformation
0.8687472291	leaf nodes
0.8687446680	excited states
0.8687058182	longitudinal data
0.8686864581	patients suffering
0.8686010003	local minimizers
0.8685989093	token level
0.8685430228	theft detection
0.8684931531	discrete valued
0.8684913397	true positive rate
0.8684549262	parameter free
0.8684228296	association rule
0.8683639412	lesion segmentation
0.8683320013	hidden markov model
0.8683143455	communication protocols
0.8682511474	detailed balance
0.8682339758	medical images
0.8682125349	multi party
0.8681548801	turing complete
0.8681454912	extensive experimentation
0.8681263279	early stage
0.8680851683	human behavior
0.8680290535	fundus images
0.8679807080	arm cortex
0.8679654453	neural machine translation
0.8679626200	great promise
0.8679321489	fully supervised
0.8679308496	pooling layers
0.8679300433	iterate averaging
0.8679162802	gaussian noise
0.8678587677	deep unfolding
0.8678491528	conformal predictors
0.8678228180	simplifying assumptions
0.8677985119	visual cortex
0.8677970473	determinantal point process
0.8677844398	lipschitz continuous
0.8677724434	gamma process
0.8677286307	graph convolutional network
0.8676941192	long sequences
0.8676864329	greedy search
0.8676845104	communication complexity
0.8676615029	great successes
0.8676481509	gradient vanishing
0.8676092264	adversarially corrupted
0.8676082906	mit bih
0.8676000125	meta learning
0.8675986521	hard exploration
0.8675670235	network topology
0.8674515480	kaplan meier
0.8674492774	fluid dynamics
0.8674408313	tsk fuzzy systems
0.8674364668	multiplicative factor
0.8674228727	rank minimization
0.8673934505	cluster analysis
0.8673824157	representation learning
0.8673797800	mobilenet v1
0.8673780911	constant step size
0.8673169966	neuroimaging studies
0.8673120493	sample sizes
0.8672630674	visible units
0.8672149762	mini batching
0.8671879496	neuroimaging data
0.8671682560	vq vae
0.8671597381	consensus clustering
0.8670734121	tensor recovery
0.8670668822	software engineering
0.8670391986	oversampling technique
0.8670336407	np hardness
0.8669968500	chance constrained
0.8669511782	similarity measure
0.8668584269	layer wise relevance propagation
0.8668343047	protein sequence
0.8668122992	smooth functions
0.8667973803	local minimum
0.8667815337	multi relational
0.8667792365	computational tractability
0.8667411170	behavioral patterns
0.8667361625	video surveillance
0.8667337832	analog neuromorphic
0.8667337704	posterior sampling
0.8667175688	likelihood estimation
0.8667013141	projection free
0.8666699670	tiny imagenet
0.8666611372	salient features
0.8666585776	imagined speech
0.8666463398	local differential privacy
0.8666083901	program induction
0.8665339805	random matrices
0.8665186694	starting point
0.8665032337	treatment effect estimation
0.8664854892	fairness notion
0.8664708341	partially collapsed
0.8664620951	cumulative regret
0.8664207756	multi step
0.8664166571	cognitive impairment
0.8664132896	remarkable progress
0.8663813005	ray tracing
0.8663797081	metastable states
0.8663456920	extensively studied
0.8663251795	enyi divergence
0.8663233856	resource constrained devices
0.8663058353	olya gamma
0.8662814268	multi aspect
0.8662806745	hardware acceleration
0.8662629267	adaptive gradient methods
0.8662388752	security threat
0.8661334888	class selectivity
0.8660983128	er rao
0.8660405332	electricity price forecasting
0.8659952219	conditional expectation
0.8659939668	low rank tensor
0.8659833671	spherically symmetric
0.8659827272	information geometry
0.8659244474	adjusted langevin
0.8659017656	raise awareness
0.8659004838	finite state
0.8658828727	hand engineered
0.8658529832	topological features
0.8658505799	spatial temporal
0.8657867873	scale mixtures
0.8657747487	generalization error bounds
0.8657587809	fine grain
0.8657445218	single channel
0.8657253116	manifold valued
0.8657102662	deep convolutional
0.8657086843	brain networks
0.8657048506	influence functions
0.8656648139	graph construction
0.8656451491	relative error
0.8656019048	receiver operating characteristic curve
0.8655962140	carefully tuned
0.8655784513	tremendous success
0.8655674973	inter subject
0.8655625245	square root lasso
0.8654324648	imagenet 1k
0.8654241134	topic model
0.8654097885	anti concentration
0.8654021733	traffic forecasting
0.8653816985	fuzzy clustering
0.8653716229	attracted considerable
0.8653618814	reconstruction error
0.8653325648	large vocabulary
0.8653141413	false positive rate
0.8653138196	crop yield
0.8652751070	binary valued
0.8652534119	social science
0.8652506335	feynman kac
0.8652150503	weakly convex
0.8651706634	upper bounding
0.8651478874	scheduled sampling
0.8651438527	partial derivatives
0.8651382756	ensemble methods
0.8650823604	` `
0.8650653309	extreme events
0.8650481496	visual perception
0.8650465771	daily activities
0.8650171337	joint pmf
0.8649595011	signal propagation
0.8649549579	markov equivalence classes
0.8649509923	geodesic distances
0.8649479500	similarity search
0.8649441924	memory accesses
0.8649279805	modulo sk
0.8649259035	briefly discuss
0.8649258317	sublevel set
0.8649243841	loss surface
0.8649242388	multi source
0.8649024496	likelihood ratios
0.8648710758	gp lvm
0.8648545146	auxiliary information
0.8647881523	lower dimensional
0.8647106344	sliced inverse regression
0.8647098145	variational bayesian inference
0.8646891093	channel wise
0.8646499169	linear bandit
0.8646434356	single cell rna sequencing
0.8646174115	l2 norm
0.8645821847	logical rules
0.8645518791	distance measures
0.8645321226	cooperative multi agent
0.8645299338	stochastic gradient mcmc
0.8645228523	black scholes
0.8644330639	fold cross validation
0.8644070530	strong baselines
0.8643958194	multi resolution
0.8643954665	spiked covariance
0.8643860957	open questions
0.8643777317	data stream mining
0.8643656961	alternating optimization
0.8642901769	canonical polyadic decomposition
0.8642570155	adversarial defense
0.8642387400	gradient staleness
0.8642090104	importance weighted
0.8641978124	handcrafted features
0.8641340708	voice activity detection
0.8641127572	cluster centroids
0.8640640793	urban planning
0.8640487785	search space
0.8640117524	gene selection
0.8639989242	expression profiles
0.8639224585	state evolution
0.8638651229	invariant representations
0.8638349788	prior knowledge
0.8637722160	attributed graph
0.8637557923	multivariate gaussian
0.8637239410	group fairness
0.8637108809	exp concave
0.8636976947	pre trained
0.8636231660	latent codes
0.8635993792	individual treatment effects
0.8635514074	uniform convergence
0.8635068693	structural equation model
0.8635008314	statistical efficiency
0.8634975583	sparsely labeled
0.8634893209	model compression
0.8634748056	geometric scattering
0.8634217411	deeper insights
0.8633868054	highly accurate
0.8633486599	structured output
0.8632949295	negatively impact
0.8632179981	ai systems
0.8632121208	mis specification
0.8632087976	universal approximation theorem
0.8631773878	resource consumption
0.8631526841	drift detection
0.8630895527	conditional gan
0.8630039936	knowledge graph completion
0.8629867395	parameter space
0.8629711273	previously unseen
0.8629677804	unsupervised clustering
0.8629486491	safe screening rules
0.8628821864	node attributes
0.8628692068	sparse inverse covariance
0.8628514754	dynamic assortment
0.8628344521	collaboratively train
0.8628292719	proximal gradient method
0.8628042483	mode dropping
0.8627467986	dissimilarity measures
0.8626777996	variational bayesian
0.8626407372	navier stokes
0.8626212767	raised concerns
0.8626126741	norm balls
0.8625597025	compression ratios
0.8625359186	pairwise comparison
0.8625280277	model agnostic
0.8624931012	multi headed
0.8624575826	human cognition
0.8624322567	transition dynamics
0.8624277067	conditional entropy
0.8623182147	kuramoto sivashinsky
0.8621807261	echo state networks
0.8621614903	operator valued kernels
0.8621537894	tangent kernel
0.8621182147	cesa bianchi
0.8620993649	dependency parsing
0.8620788958	linear programs
0.8620627777	instance level
0.8620230469	stochastic gradient langevin
0.8619927052	intriguing phenomenon
0.8619638195	nuclear norm regularization
0.8619453497	confidence sets
0.8619091251	acoustic scenes
0.8618867477	hyperbolic spaces
0.8618789002	magnetic resonance images
0.8618564017	cross entropy loss
0.8618436279	weather forecast
0.8617012142	dice coefficient
0.8616899650	softmax loss
0.8616545854	minimax lower bounds
0.8615945668	convergence guarantees
0.8615909652	loopy belief
0.8615844569	hidden confounders
0.8615657974	spectral density
0.8615471029	minority classes
0.8615299503	transport maps
0.8614821729	unstructured text
0.8614334022	human rights
0.8613820017	incremental learning
0.8613225229	probabilistic forecasts
0.8613022972	cancer cells
0.8612834337	average case
0.8612616286	probabilistic forecasting
0.8612435623	anchor word
0.8612032971	maximum inner product search
0.8611927031	variational inequalities
0.8611854166	low rank matrices
0.8611127259	fall detection
0.8611086542	gene expressions
0.8611061186	equal error rate
0.8611023973	attribution methods
0.8610666252	maximally correlated
0.8610231935	companion paper
0.8609761707	computationally feasible
0.8609191674	semidefinite program
0.8609138736	log mel
0.8608235463	intermittent demand
0.8608217562	sea surface
0.8608131287	causal structure
0.8608041766	supply demand
0.8607516013	image quality
0.8607174265	lp norm
0.8607033682	uncertainty aware
0.8606875095	differential expression
0.8606845651	main drawbacks
0.8606713668	screening rule
0.8606672595	parameter servers
0.8606526520	fine tuned
0.8606523311	embedded systems
0.8606341578	risk minimisation
0.8606124127	finite sample
0.8605755819	granger causal
0.8605694756	healthy controls
0.8605017251	graphical model selection
0.8605010633	solving inverse problems
0.8604761741	graph signals
0.8604686698	degree corrected stochastic block
0.8604562905	deterministic policy gradient
0.8603872016	atari game
0.8603830398	theoretical foundations
0.8603614028	gaussian mixture model
0.8603547667	optimal control
0.8603491422	noise tolerance
0.8603338735	state action
0.8603337676	white noise
0.8603054360	hyper parameter tuning
0.8602912724	uniform sampling
0.8602363279	morse smale
0.8601970690	conjugate prior
0.8601881898	multi modality
0.8601106737	high dimensions
0.8600578873	advantage actor critic
0.8600495042	soft labels
0.8600459804	temporal logic
0.8600264287	knowledge graph embedding
0.8600014978	newton type
0.8599852958	case study
0.8599783141	data scientists
0.8599745453	variable sized
0.8599665911	dynamically adjust
0.8599529198	african languages
0.8599475043	notoriously hard
0.8599175555	lab tests
0.8598382343	discriminatively trained
0.8598202094	scaled lasso
0.8597768294	biologically meaningful
0.8597581979	spherical gaussians
0.8597333795	personalized treatment
0.8597112424	push forward
0.8597069764	transferring knowledge
0.8597066637	hdp hmm
0.8596909500	overcomplete dictionary
0.8596696603	physical phenomena
0.8596322839	behave differently
0.8596151467	bidirectional recurrent
0.8596144215	tensor nuclear norm
0.8596126320	mixing proportions
0.8595988673	adjacency spectral embedding
0.8595845363	fairness aware
0.8595688381	direct feedback alignment
0.8595262723	pitman yor process
0.8595000022	communication efficient
0.8594904580	particle markov chain monte carlo
0.8594658633	coordinate wise
0.8594590485	signal reconstruction
0.8594453091	financial market
0.8594260625	long term memory
0.8594143405	computational hardness
0.8593891342	gaussian graphical model
0.8593807535	minimax game
0.8593635844	increasingly prevalent
0.8593506877	rectified linear
0.8593244153	sequence prediction
0.8592813995	studied extensively
0.8591632751	carefully designed
0.8591272540	privacy concerns
0.8590694722	finite dimensional
0.8590659468	physically meaningful
0.8590432147	karush kuhn tucker
0.8589839848	population genetics
0.8589803010	convolutional autoencoder
0.8589509562	key ingredients
0.8589277654	fake users
0.8589204564	computational neuroscience
0.8589062796	major drawbacks
0.8589013191	physics guided
0.8589005691	beta process
0.8588518765	policy gradients
0.8588144700	probabilistic graphical model
0.8587350583	convolutional layer
0.8587198626	unobserved entries
0.8587179499	dialogue systems
0.8587118932	theoretical underpinnings
0.8587094314	covariance functions
0.8586176716	conditional mutual information
0.8585572902	biological systems
0.8584902214	sensor data
0.8584312787	discrete random variables
0.8583965991	language model
0.8583726139	adversarial samples
0.8583693057	conditional distributions
0.8583675750	truncated svd
0.8583264098	confidence scores
0.8583182147	broyden fletcher goldfarb shanno
0.8583081958	sloan digital sky
0.8582607892	optimal transportation
0.8582448068	exponentially weighted
0.8582443174	fully automatic
0.8582293374	meta paths
0.8582084119	neural architectures
0.8581752765	similarity measures
0.8581663652	vector machines
0.8581279048	perturbation theory
0.8580974240	expert knowledge
0.8580508799	overparameterized regime
0.8579981550	multi channel
0.8579593672	heteroscedastic noise
0.8579526877	mutual dependence
0.8579061358	sentence embeddings
0.8578400327	seizure type
0.8578021907	capsule networks
0.8577813857	fisher discriminant analysis
0.8577756005	malware classification
0.8577570332	user feedback
0.8577151554	deep rl
0.8577145152	multi site
0.8576938586	macro f1
0.8576896186	hyper parameter
0.8576115638	root finding
0.8575702704	min max optimization
0.8575690184	low fidelity
0.8575456176	normalized discounted
0.8575435050	l1 minimization
0.8575090474	hadamard transform
0.8574975182	voice controlled
0.8574803790	rgb images
0.8574598280	graph theoretic
0.8574404097	financial institutions
0.8574278426	transition probabilities
0.8573697869	learner observes
0.8573236150	neuronal activity
0.8573074039	ornstein uhlenbeck
0.8572736384	likelihood maximization
0.8572619127	test set
0.8572473113	update rules
0.8572386713	human intervention
0.8572068337	functional mri
0.8571938829	log loss
0.8571517188	wasserstein gradient flows
0.8570615164	shortest path distance
0.8570540088	minimum volume
0.8570399048	low power
0.8570369698	image caption
0.8570098495	single trial
0.8569997472	randomly perturbed
0.8569349033	multivariate hawkes
0.8569327796	patient specific
0.8568979147	lipschitz constant
0.8568639725	convex concave saddle point
0.8568211808	convolutional autoencoders
0.8567667052	manifold learning
0.8567135369	wasserstein distributionally robust
0.8567135142	exploration bonuses
0.8565457511	dirichlet processes
0.8564948733	field theories
0.8564787770	transformer architecture
0.8563980545	chain monte carlo
0.8563847870	classification accuracies
0.8563710240	saddle point problems
0.8563473119	dga classifiers
0.8563003856	internal states
0.8562982292	collapsed gibbs sampling
0.8562652613	regret guarantees
0.8562083140	sensor networks
0.8561185347	squared hinge
0.8560853324	approximate dynamic programming
0.8560341568	factors influencing
0.8560283985	low rank approximation
0.8560186039	multimodal sentiment analysis
0.8560050931	sharp thresholds
0.8559909062	complexity measure
0.8558827212	generalized eigenvalue
0.8558818775	discrete fourier transform
0.8558811812	sleep stage
0.8558517856	window size
0.8558257090	computational chemistry
0.8557069758	cognitive neuroscience
0.8556719460	rotation invariance
0.8556010903	velocity fields
0.8555721381	boosted decision tree
0.8555515415	foreground background
0.8555497966	sign language
0.8555453242	pac learning
0.8555440979	citation network
0.8555121666	polynomial regression
0.8554989788	group sparsity
0.8554823441	approximation error
0.8554820597	marginal polytope
0.8554686983	mobility patterns
0.8554448317	linear discriminant
0.8554100054	ultrasound imaging
0.8553953028	gp ucb
0.8553721639	fixed length
0.8553670199	imperceptible perturbations
0.8553657218	speaker independent
0.8553492682	gan training
0.8553369782	stochastic bandits
0.8552429233	safety concerns
0.8552390885	blind source
0.8552360135	statistical physics
0.8552180719	tangent spaces
0.8552070657	feedforward neural network
0.8551750668	health indicator
0.8551474186	conditional density
0.8550996024	network embedding
0.8550895233	generalized eigenvalue problem
0.8550635759	laplace mechanism
0.8550617356	conditional density estimation
0.8550516193	navier stokes equations
0.8550435509	wall clock
0.8549741748	kl ucb
0.8549649906	real life
0.8548844380	base classifiers
0.8548751505	positive unlabeled
0.8548627510	compression ratio
0.8548325583	information directed sampling
0.8548196140	collaborative ranking
0.8548048647	spiking neural network
0.8547899282	social media platforms
0.8547286933	autonomous agents
0.8547276674	portable devices
0.8547229164	count data
0.8546729867	fashion mnist
0.8546392570	financial services
0.8546128342	black box attacks
0.8546126083	locality sensitive
0.8546089728	amp chain
0.8545976614	physionet challenge
0.8545874375	communication bandwidth
0.8545856951	propensity scores
0.8545620571	perform poorly
0.8544662419	kernel trick
0.8544574315	class imbalanced
0.8544568371	van roy
0.8544286954	anchor words
0.8544233188	approximation errors
0.8543994274	main drawback
0.8543806375	protein structure
0.8543589982	structured pruning
0.8543443451	illustrative examples
0.8543240656	bernstein type
0.8543069954	extreme gradient boosting
0.8543009898	mr imaging
0.8542973553	gradient estimator
0.8542891103	long run
0.8542605021	coronavirus disease
0.8542463828	characteristic curve
0.8541967571	arbitrarily corrupted
0.8541518500	multiple views
0.8541243614	explanation methods
0.8541114487	feature reuse
0.8540578076	uncertainty propagation
0.8540315798	poisson equation
0.8540171192	scrna seq
0.8539614287	arcade learning environment
0.8539238034	total variation distance
0.8539203933	besov space
0.8539197197	tensor rank
0.8539084720	design space exploration
0.8538983516	2nd order
0.8538714512	symbolic reasoning
0.8538584026	total reward
0.8537583960	bleu scores
0.8536815562	periodic averaging
0.8536700388	energy efficient
0.8536577109	low complexity
0.8535876888	regularized empirical risk minimization
0.8535588479	inductive matrix completion
0.8535361052	vertex correspondence
0.8535269769	robust principal component analysis
0.8534902573	random initialization
0.8534362878	pseudo labels
0.8534311756	fusion center
0.8534234235	crystal structure
0.8534114910	trading strategy
0.8534096851	information criterion
0.8534028802	softmax layer
0.8533759035	defense mechanisms
0.8533518905	protein interaction
0.8533368063	data poisoning
0.8533163182	short run mcmc
0.8533138518	epoch wise
0.8532931291	algebraic topology
0.8532257918	asymmetric laplace
0.8531861177	mnist dataset
0.8531393598	hyper parameter optimization
0.8530581791	vanishing gradients
0.8530446220	fdr control
0.8530402492	multi objective optimization
0.8530113826	dark knowledge
0.8529875614	single pass
0.8529774028	large corpora
0.8529673700	realizable case
0.8529539675	quantum states
0.8528834017	gaussian process priors
0.8528639231	pu learning
0.8527771545	earth mover's
0.8527699503	batch mode
0.8527687405	spike train
0.8527422055	contrastive loss
0.8527207085	mixed multinomial logit
0.8527087515	ensemble members
0.8526438686	computationally hard
0.8525782051	spiking activity
0.8525508746	sufficient decrease
0.8525411226	human evaluation
0.8525407433	mixture distributions
0.8524951839	embarrassingly simple
0.8524678711	discrete choice
0.8524666843	power control
0.8524564442	graph kernels
0.8523842956	grows exponentially
0.8523775123	dr submodular
0.8523525111	derivative free optimization
0.8522782910	ambiguity set
0.8522771281	node features
0.8522692753	directed graph
0.8522413787	hand crafted
0.8521995243	open challenges
0.8521762431	rock type
0.8521661490	content based image retrieval
0.8521617444	ranked list
0.8520749924	raw pixel
0.8519501541	covariate shift adaptation
0.8519314634	previously thought
0.8519274369	vehicle routing
0.8519190510	bcd net
0.8519000411	type ii error
0.8518546935	business process
0.8518320630	quadratic assignment
0.8518176890	performs poorly
0.8517635145	transductive learning
0.8516842255	wide spread
0.8516625505	locally private
0.8516542142	translation invariant
0.8516026501	network traffic
0.8516025120	early diagnosis
0.8515985252	pre processed
0.8515888844	labeled data
0.8515594362	kernel regression
0.8515433401	nonzero elements
0.8515115977	brain mri
0.8514770130	quality control
0.8514265645	hypothesis test
0.8513912314	correct answers
0.8513592541	data collection
0.8513580076	integer program
0.8513464259	general data protection regulation
0.8513407032	formal concept analysis
0.8513022981	materials discovery
0.8512861868	sinkhorn divergences
0.8512817097	regret bound
0.8512525666	extended abstract
0.8512257619	inter rater
0.8512187193	transition operator
0.8512156675	jaccard similarity
0.8511984474	multi dimensional
0.8511913219	communication efficient distributed
0.8511605923	mini batch sizes
0.8511407843	matrix valued
0.8511250156	minimum distance
0.8510444062	multiple input multiple output
0.8510068137	mumford shah
0.8510068137	calabi yau
0.8510050484	disease subtypes
0.8509688055	passive aggressive
0.8509203703	null hypotheses
0.8508841069	marginal likelihoods
0.8508784007	hl mrfs
0.8508585674	positive definiteness
0.8508579463	vanishing exploding
0.8508009017	reversible markov chain
0.8506986042	gpu accelerated
0.8506983335	fat shattering
0.8506344634	distributed optimization
0.8505917536	log concavity
0.8505903389	default values
0.8505888605	conformal inference
0.8505850596	life long
0.8505816173	low bit
0.8505163210	unknown unknowns
0.8505107706	risk factors
0.8504555952	inverse probability weighting
0.8504226606	constant stepsize
0.8504111803	maximum likelihood estimator
0.8503886686	random survival forests
0.8503792085	robust statistics
0.8503782487	hierarchical dirichlet
0.8503779326	error bars
0.8503413369	signed graphs
0.8503187140	converges faster
0.8503120979	active set
0.8502975061	subspace tracking
0.8502719951	low resolution
0.8502468262	ood detection
0.8502297769	pitman yor
0.8502053040	siamese neural network
0.8502011748	independence screening
0.8501553474	rate distortion theory
0.8501163570	short duration
0.8500987717	rigorous proof
0.8500923659	bi level
0.8500781350	transition probability
0.8500392528	survival forests
0.8500216598	natural gradient descent
0.8499466304	world wide web
0.8499380824	quadratic discriminant analysis
0.8498909520	sparse reward
0.8498400568	metric space
0.8497710149	sparsity inducing penalties
0.8497540057	inverse reinforcement
0.8496938562	recursive partitioning
0.8496916425	misclassification error
0.8496557364	temporal dependencies
0.8496363533	feature attributions
0.8496313037	neural ode
0.8495975640	nonconvex problems
0.8495526955	manually labeled
0.8494169246	log likelihoods
0.8493931884	github.com locuslab
0.8492656917	alanine dipeptide
0.8491351253	l1 penalty
0.8491028784	text documents
0.8490622805	structural similarity index
0.8490385745	rul estimation
0.8490361672	social sciences
0.8490126641	tree search
0.8489970028	low frequency
0.8489641053	vanishing ideal
0.8488988146	generalization bound
0.8488264286	matrix inversion
0.8488102721	intelligent transportation
0.8487914568	poisson likelihood
0.8485513032	monotone operators
0.8485456220	waveform generation
0.8485308099	empirical successes
0.8484976060	soft margin
0.8484872806	connected components
0.8484643051	sigmoid belief networks
0.8484520610	fairness metrics
0.8484382317	kernel methods
0.8484181955	uncertainty estimates
0.8484143693	memory usage
0.8483728313	partial dependence
0.8483552627	beta negative binomial
0.8483442702	sparse subspace clustering
0.8483090705	computational savings
0.8482998992	gumbel max
0.8482833286	fast gradient sign method
0.8482624918	kernel pca
0.8481925423	traffic prediction
0.8481621494	shallow networks
0.8481324736	hermitian matrix
0.8481179374	processing units
0.8481040936	adversarially learned
0.8480232695	global minimum
0.8479523275	group sparse
0.8478981393	drug drug interaction
0.8478935103	translation invariance
0.8478386803	node representations
0.8478330305	greedy gq
0.8478020969	spatial resolution
0.8477906257	transformer based
0.8477433482	multi player
0.8477384998	natural images
0.8477280722	reduced rank regression
0.8476422460	augmented lagrangian method
0.8475832825	bethe hessian
0.8474782183	target tracking
0.8474427046	affine subspaces
0.8474158397	grassmann manifold
0.8473634812	undesired edges
0.8473368047	loss surfaces
0.8473277745	neural architecture
0.8473176394	active subspace
0.8472998584	conditional random field
0.8472854501	low rank matrix factorization
0.8472665807	hate speech detection
0.8472490442	deep networks
0.8471799957	cross lingual sentiment
0.8470722686	multivariate regression
0.8470524520	heavily depend
0.8470410536	meta path
0.8470391756	generative model
0.8469554580	scalar valued
0.8469530584	environmental monitoring
0.8469379637	hadron collider
0.8469199575	kernel approximation
0.8467933755	l1 penalized
0.8467922628	separable convolutions
0.8467885705	residual connections
0.8467880208	domain generalization
0.8467266237	memory augmented
0.8467072550	fully factorized
0.8466961531	ratio cut
0.8466779845	minority oversampling
0.8466666546	weighted majority
0.8466540712	minimization problems
0.8466535772	low variance
0.8466509561	policy distillation
0.8466448482	automatic sleep stage
0.8465085068	drug target
0.8464953137	landmark points
0.8464510677	maximum correntropy
0.8464316069	minibatch sgd
0.8464300537	spiking neural
0.8464171545	traveling salesman
0.8464115500	ecg signal
0.8463958211	backdoor trigger
0.8463955513	scale free
0.8462291394	semantic image segmentation
0.8462113941	gradient estimation
0.8461844880	multiplicative updates
0.8461725486	complementary labels
0.8461184726	multi core
0.8461112934	convex polytope
0.8461086258	deep residual networks
0.8460525360	scale invariance
0.8460285949	variable screening
0.8460161083	smoothed analysis
0.8459753193	grouping effect
0.8459066311	vision based
0.8458960189	trade offs
0.8458589989	high dimension
0.8458325851	spectral methods
0.8457413993	physical reasoning
0.8457383320	deep ensembles
0.8457274704	sound event detection
0.8456829355	user item
0.8456340457	main contribution
0.8456323087	degree corrected block
0.8456160622	massive data
0.8456112064	dawid skene
0.8455780846	weight transport
0.8455683597	invertible transformations
0.8455655889	arise naturally
0.8455475812	nuisance factors
0.8455216440	chest x ray
0.8455130315	disparate treatment
0.8454980880	credit card fraud
0.8454622244	patients admitted
0.8454533183	implicitly defined
0.8454494566	connected vehicles
0.8454443387	kernel matrices
0.8454425952	word level
0.8453895432	convolutional sparse coding
0.8453511440	multiple testing
0.8453479558	causal reasoning
0.8453265262	converge faster
0.8453185431	large deviation
0.8452538322	english german
0.8452456162	lloyd's algorithm
0.8452346814	image patches
0.8452213212	unifying perspective
0.8452208684	base kernels
0.8452199883	accelerated gradient descent
0.8452173740	unsupervised representation learning
0.8452159339	acquisition function
0.8452073463	nuisance parameters
0.8451926456	weighted majority voting
0.8451696127	future research directions
0.8451026871	auxiliary tasks
0.8450608875	temporal abstraction
0.8450470504	relational data
0.8450406053	transportation cost
0.8450286815	single lead ecg
0.8449516521	neighboring nodes
0.8449312275	single cell rna seq
0.8448729782	sparse regression
0.8448560427	categorical data
0.8448326077	inverse cholesky
0.8448301345	semi bandit feedback
0.8447352172	instance dependent
0.8447160904	power law degree
0.8446958714	highly correlated
0.8446786332	probability density
0.8446440371	great significance
0.8446170423	expected return
0.8446098023	proximal gradient algorithm
0.8445621302	randomly projected
0.8445435825	tree reweighted
0.8445414657	acoustic scene classification
0.8445380661	logarithmic factor
0.8444578950	analytically intractable
0.8444568314	speech processing
0.8444511664	random sampling
0.8443843285	theoretical guarantees
0.8443700006	uniformly sampled
0.8443599519	conjugate gradients
0.8443411670	multi player multi armed
0.8443347471	random features
0.8443175879	widely employed
0.8442927339	echo state network
0.8442095994	medical applications
0.8441893296	catastrophic overfitting
0.8441775076	reinforcement learning agents
0.8441487919	inducing point
0.8441409553	single agent
0.8441325298	low rank matrix
0.8440441992	visualization tool
0.8440166145	structural breaks
0.8439999543	factorization machine
0.8439906098	meta rl
0.8439726484	energy efficiency
0.8439382881	field programmable gate
0.8439162723	high dimensionality
0.8437573271	counterfactual inference
0.8437449708	convex programs
0.8437406951	restrictive assumptions
0.8437368407	utterance level
0.8437313851	undirected graphical model
0.8436540528	deep architectures
0.8436135294	max product
0.8435870735	minimax optimization
0.8435769968	scoring rules
0.8435375127	spoofing detection
0.8435357995	log density
0.8435135938	low pass
0.8434700892	probabilistic modeling
0.8434676289	driving scenarios
0.8433861000	remains unsolved
0.8433772306	boosting algorithms
0.8433332349	drug combinations
0.8432609260	multiple kernel learning
0.8432529147	accelerated gradient
0.8432280733	latent force
0.8432259717	paramount importance
0.8432181157	memory consumption
0.8432134205	jointly optimizes
0.8431651781	ambient space
0.8431397555	confusion matrices
0.8430901872	decision theoretic
0.8430644526	fine details
0.8430556787	stationary distribution
0.8429255613	random reshuffling
0.8429056547	hardware platforms
0.8428368876	interacting particles
0.8427647638	floating point operations
0.8427441987	readily applicable
0.8426658036	quantum computing
0.8426640265	half spaces
0.8426095049	penalty functions
0.8425105690	heavy ball method
0.8424906755	feature subsets
0.8424541121	fuzzy sets
0.8423564117	sample inefficiency
0.8423496037	multi speaker
0.8423434755	privacy utility trade
0.8423392624	inverse gamma
0.8422981055	optimal regret
0.8422927620	climate science
0.8422613079	hand tuned
0.8422251808	integral probability metrics
0.8422140788	iterative reweighted
0.8421835839	neural tangent kernels
0.8421724362	context free grammar
0.8421680685	potential outcomes
0.8421472684	electricity market
0.8421168082	extended version
0.8420975026	weak learners
0.8420814109	multi label classification
0.8420812222	compressive measurements
0.8420727760	sample complexities
0.8420530258	logistic loss
0.8420333292	spider sfo
0.8419982367	initial conditions
0.8419767374	kernel cca
0.8419257411	single layer
0.8419201921	relevant features
0.8418709896	topic discovery
0.8418341896	continuous action
0.8418218477	raw waveform
0.8418144375	cancer genome atlas
0.8418015277	hand written
0.8417064157	carefully constructed
0.8417015409	attracted great
0.8416742351	tensor network
0.8416621196	light tailed
0.8416388978	random variables
0.8416347071	locally linear
0.8416280136	statistical estimation
0.8416031027	newton's method
0.8415861659	accelerated proximal
0.8415851903	group wise
0.8415265739	principal components analysis
0.8415174244	isometry property
0.8414937956	statistically equivalent
0.8414646473	stationary point
0.8414617316	image compression
0.8414101450	subject specific
0.8413963702	poly logarithmically
0.8413820516	brain computer interface
0.8413368689	hand written digits
0.8413321022	parametric families
0.8413295968	posterior distributions
0.8412627957	prior arts
0.8412595129	microarray data
0.8412103312	potential energy
0.8411387855	covering number
0.8410963855	list wise
0.8410564844	text independent speaker
0.8410445797	wavelet coefficients
0.8410214181	solution path
0.8410161454	main innovation
0.8409747034	high school
0.8409694487	sparse signals
0.8409232439	incomplete data
0.8409132669	optimal policy
0.8408929803	representational power
0.8408755828	fixed horizon
0.8408380249	variational information bottleneck
0.8408200223	chance corrected
0.8407708897	power spectrum
0.8407482336	crude oil price
0.8407174256	previously reported
0.8406948459	spectral mixture
0.8406375892	graph structure
0.8405995496	state estimation
0.8405459249	firing rates
0.8404762639	nonlinear regression
0.8404712813	pairwise interactions
0.8404454166	contrastive explanations
0.8404401171	complete picture
0.8404311299	cost function
0.8402979877	history matching
0.8402947963	factor graph
0.8402701212	fast mixing
0.8402549116	dimensional subspaces
0.8402382272	fully observable
0.8402019070	probability densities
0.8401717719	posterior approximations
0.8400538787	rapidly evolving
0.8400129706	newly developed
0.8399871641	minimax risk
0.8399650837	affine transformation
0.8399412310	chatter detection
0.8399324374	nodal attributes
0.8398786187	open world
0.8398634857	variational approximation
0.8398181211	matrix vector multiplications
0.8397725593	kernel density
0.8397560836	learning rates
0.8397158028	dynamic ensemble selection
0.8397074177	research papers
0.8397007836	pac bayesian
0.8396943912	sample average approximation
0.8396833630	synchronous sgd
0.8396354734	pre training
0.8396213716	reverse mode
0.8395531934	general fuzzy min max
0.8395337654	metric learning
0.8394972323	price movements
0.8394784717	computationally intractable
0.8394549960	mortality risk
0.8394004589	domain experts
0.8393748781	hierarchical agglomerative clustering
0.8393366475	momentum sgd
0.8392639469	multilayer networks
0.8392611923	gradient computations
0.8392456580	object localization
0.8391747420	pre determined
0.8390844614	molecular descriptors
0.8390809195	logarithmic loss
0.8390704828	positive semi definite
0.8390364228	defense mechanism
0.8390288674	stochastic bandit
0.8390144726	missing facts
0.8389256273	post training
0.8389138463	nonlinear dimensionality reduction
0.8389124169	randomized coordinate descent
0.8389020261	user behaviors
0.8388730166	semi supervised learning
0.8388607890	pac learnable
0.8387836238	synthetic datasets
0.8387537511	log likelihood ratio
0.8387502963	random graphs
0.8386939847	avoid saddle points
0.8386872133	low dose
0.8386434087	optimisation problem
0.8385825293	physics informed neural networks
0.8385813605	significant speedups
0.8385517405	completely random measures
0.8384653515	image classifiers
0.8384461121	monte carlo sampling
0.8384316842	negative log likelihood
0.8384121858	combinatorial multi armed bandit
0.8384114467	combinatorial optimization problems
0.8383986508	sustainable development
0.8383232405	worker machines
0.8383017456	sample splitting
0.8382746717	ucb algorithm
0.8382560519	information theoretic quantities
0.8382144193	perform comparably
0.8382043560	contextual policy search
0.8381985939	remains unchanged
0.8381961828	long range dependencies
0.8381917877	deep neural
0.8381852881	correlation analysis
0.8381691419	probability distribution
0.8381460923	trace regression
0.8380209915	explanatory variables
0.8380143517	gaussian distributions
0.8379775922	compression schemes
0.8378949361	exponential decay
0.8378853812	unstructured data
0.8378654202	stein variational
0.8377306764	contact map
0.8376470766	feature vector
0.8376271877	chaotic dynamics
0.8375997059	daunting task
0.8375792245	prototypical networks
0.8375779975	brain computer interfaces
0.8375525789	markov switching
0.8375497599	computational expense
0.8374962388	alpha beta
0.8374812995	music information retrieval
0.8374738187	bayesian networks
0.8374501283	single nucleotide
0.8374442908	forward propagation
0.8374412105	convex loss functions
0.8374232198	graph fourier transform
0.8374037166	wavelet based
0.8374027825	autism spectrum
0.8373934864	computational power
0.8373889353	memory intensive
0.8373708460	adaptively chosen
0.8373421542	largest eigenvalue
0.8373131760	sleep disorders
0.8372754346	wireless networks
0.8372478478	sparse approximation
0.8372286053	negative samples
0.8371886192	calibration error
0.8371700847	random field
0.8371396335	riemannian optimization
0.8371295277	fourth order
0.8371200941	virtual adversarial training
0.8370398141	closed form expressions
0.8370056327	feature construction
0.8370023956	observed entries
0.8369577270	learned optimizers
0.8369543327	deformation stability
0.8369294445	column generation
0.8369266993	cluster sizes
0.8369225336	laboratory tests
0.8369113927	short time fourier transform
0.8368944374	protected group
0.8368836314	power laws
0.8368453363	hidden layer
0.8368428649	action selection
0.8368272064	linear dynamical systems
0.8368212553	sum rate
0.8368170015	inverse problem
0.8368161224	communication cost
0.8367439381	residual network
0.8366813381	multiple instance learning
0.8366528703	algorithmic decision making
0.8366156031	multi omic
0.8366142215	monotone dr submodular
0.8365875874	rigid body
0.8365641212	ultra high
0.8365506111	single path nas
0.8365407195	logarithmic factors
0.8365365684	case studies
0.8365166721	asynchronous advantage actor critic
0.8364929365	central limit
0.8364705243	absolute improvement
0.8364616732	arms race
0.8364514585	hypothesis class
0.8364219407	flat regions
0.8363822673	energy storage
0.8362702356	key insight
0.8362531918	group membership
0.8362411079	block coordinate ascent
0.8361771418	series expansion
0.8361400216	group lasso penalty
0.8360997900	evolutionary strategies
0.8360793993	sequence modeling
0.8360757874	variational objective
0.8360751142	nonnegative tensor factorization
0.8360398177	convolutional network
0.8360315669	material science
0.8360305818	heat kernel
0.8358795175	sparse linear regression
0.8358548331	anti cancer
0.8357787301	technical note
0.8357768311	information flow
0.8357701877	closed set
0.8357213408	molecular graph
0.8357095299	column space
0.8356918932	distance metric learning
0.8356475868	computationally inefficient
0.8356125032	protein protein interaction
0.8356030107	low rank matrix estimation
0.8355895241	average precision
0.8355699136	molecular design
0.8355698638	numerical simulations
0.8355441657	ensemble kalman filter
0.8355349714	exploration exploitation tradeoff
0.8355262500	data centers
0.8355060677	asymptotically normal
0.8354866959	hop neighborhood
0.8354789494	object oriented
0.8354672688	multi arm bandit
0.8354342355	communication costs
0.8353024035	radial basis functions
0.8353004343	smart devices
0.8352639687	architectural choices
0.8352215311	wgan gp
0.8351732837	path length
0.8351341523	macro actions
0.8351281140	easily fooled
0.8350741233	image translation
0.8350459083	automatic curriculum
0.8350266692	learned representations
0.8350124373	main motivation
0.8350055151	latent dirichlet
0.8350054115	faster convergence
0.8348846336	generally applicable
0.8348800629	greatly reduced
0.8348609320	mcmc sampling
0.8348368296	modal regression
0.8347956561	acute respiratory
0.8347764852	graph structured
0.8347425329	spatiotemporal traffic
0.8347337867	human annotators
0.8346449773	monte carlo simulations
0.8346375375	random fourier
0.8346248895	ultra high dimensional
0.8346069567	orthonormal basis
0.8345726284	score function
0.8345230679	high precision
0.8345196154	chit chat
0.8345128491	volume sampling
0.8344650955	computational overhead
0.8344044933	feature interaction
0.8343974422	equal sized
0.8343865093	input space
0.8343625613	sample efficient
0.8342377217	context sensitive
0.8341873934	exploratory analysis
0.8341498615	labeling effort
0.8341302727	global minimizers
0.8341151592	surrogate model
0.8340656748	privacy sensitive
0.8340541912	ensemble learning
0.8340446882	air traffic
0.8340404817	strict saddle points
0.8340353137	road surface
0.8340146199	weighting schemes
0.8339881279	density estimators
0.8339291232	variational em
0.8339051014	language agnostic
0.8339016940	beta bernoulli
0.8338916308	projected gradient
0.8338476454	hidden state
0.8338345961	chest x rays
0.8338312378	clean labels
0.8338219864	mini batch size
0.8338214387	semi implicit
0.8336779313	temporal resolution
0.8336492325	pretext tasks
0.8335769070	covariance structures
0.8335730983	conceptually simple
0.8335633871	trans dimensional
0.8335452746	model order selection
0.8335447909	computationally costly
0.8335397722	local nash equilibria
0.8335372976	fuzzy c means
0.8335010602	matrix multiplications
0.8334870510	relevance vector machine
0.8334726354	marginal densities
0.8334666749	risk neutral
0.8334528381	percentage error
0.8333995909	generating adversarial examples
0.8333882305	soft dtw
0.8333685880	change points
0.8333306048	multiple imputation
0.8332942648	hamilton jacobi
0.8332413911	minimum cost
0.8331921137	gradient free
0.8331767933	main contributions
0.8331584945	knowledge discovery
0.8330716020	power systems
0.8330479475	transport map
0.8330424933	image completion
0.8330296077	depends heavily
0.8329748912	network topologies
0.8329457932	low resource languages
0.8329001557	theoretical properties
0.8328367694	linear subspaces
0.8328335393	map inference
0.8328073876	joint probability distribution
0.8327373476	widely studied
0.8327034967	black box attack
0.8326892183	road networks
0.8326492651	rule based
0.8325571276	reconstruction errors
0.8325526284	attention based
0.8325473943	deep relu networks
0.8325367709	kernel density estimator
0.8324830438	real world
0.8324414989	performance metric
0.8324338715	condition monitoring
0.8324293695	sample quality
0.8323528813	automated vehicles
0.8323251500	evolving data streams
0.8323167540	chronic conditions
0.8323065318	physical processes
0.8322551990	budget allocation
0.8321539179	heat transfer
0.8321038730	hidden neurons
0.8320770116	random numbers
0.8320647849	control theory
0.8320459106	statistical query
0.8320291305	projection operator
0.8319996664	highly unbalanced
0.8319871072	implicit bias
0.8319240951	lebesgue measure
0.8319199421	precision matrix estimation
0.8319105386	molecular properties
0.8318745932	discrete wavelet transform
0.8318660663	temporal coherence
0.8318378802	explained variance
0.8318232926	quantitative assessment
0.8318206142	phase space
0.8317968806	set valued
0.8317713428	remaining useful life
0.8317652150	bandwidth selection
0.8317626675	poisson gamma
0.8317471932	anti spoofing
0.8316297425	conditional probability
0.8316192633	graph embeddings
0.8316163687	formal guarantees
0.8315750513	linearly constrained
0.8315284412	random effects
0.8314939011	ultra reliable
0.8314561670	sparsity inducing norms
0.8314547945	manual labeling
0.8314464304	ad placement
0.8314421660	computational budget
0.8314346143	norm bounded
0.8314129308	convex minimization
0.8314092919	log concave distributions
0.8314076153	gradient masking
0.8313110226	distribution free
0.8312923180	rand index
0.8312700568	precision recall curve
0.8312551312	case based reasoning
0.8312500530	bag level
0.8311877514	gene gene
0.8311669900	label distribution
0.8310574461	limited angle
0.8310369150	sparse bayesian learning
0.8310232401	macro level
0.8310043755	multi faceted
0.8309818430	semantics preserving
0.8309636863	human brain
0.8309067649	counterfactual explanation
0.8308936882	free lunch
0.8308879255	hierarchically structured
0.8308808631	reconstruction quality
0.8308170149	unlabeled samples
0.8308106245	small ball
0.8308029990	pre defined
0.8307979180	multivariate normal
0.8307971572	drug target interaction
0.8307872207	sparse signal
0.8306264223	labelled data
0.8306189108	inter class
0.8305612044	single hidden layer
0.8305434714	multi sensor
0.8305221563	emotional speech
0.8305130775	gradient boosted decision trees
0.8304962639	cost effective
0.8304951767	meta reinforcement learning
0.8303963164	speech utterances
0.8303753829	cumulative distribution
0.8303742208	earlier stages
0.8302517510	confidence bound
0.8301689626	special cases
0.8301460338	trajectory optimization
0.8301257027	gaussian distribution
0.8301130356	quasi newton method
0.8300837430	triangle inequality
0.8300692725	competing objectives
0.8300691193	gap dependent
0.8300318638	adaptive filtering
0.8300251554	t2 weighted
0.8299587350	asymptotically exact
0.8299410598	adaptive sampling
0.8299074287	mobile device
0.8299022282	unit sphere
0.8298900974	scientific fields
0.8298165502	post hoc calibration
0.8297769303	latent dynamics
0.8297200438	acoustic scene
0.8296997420	iterative thresholding
0.8296339428	singular vectors
0.8296301700	spatial resolutions
0.8295136976	prototype selection
0.8294965725	state aggregation
0.8294895631	partition functions
0.8294434965	sleep monitoring
0.8294383199	structural properties
0.8293532428	missing mass
0.8293503741	chain rule
0.8292880255	graph theory
0.8292576273	social influence
0.8292002392	image deblurring
0.8291941071	speckle noise
0.8291664252	mild condition
0.8290715918	statistical relational learning
0.8290658663	fixed budget
0.8290498756	extremely fast
0.8290305048	generalize poorly
0.8290293172	memory capacity
0.8290154725	public transportation
0.8290122390	strong consistency
0.8288039103	formally define
0.8287795501	feature mapping
0.8287630930	linear separability
0.8287414165	continuous domains
0.8287287583	low rank tensor completion
0.8286767080	irregularly sampled time series
0.8286683538	human activity
0.8286434747	poisson process
0.8286404484	solid theoretical
0.8285696505	model inversion attacks
0.8285558644	gamma poisson
0.8285446750	subspace recovery
0.8285423092	point sets
0.8284999207	compression rates
0.8284503159	abstract syntax trees
0.8283462334	dense subgraph
0.8283384402	bandit algorithm
0.8283324838	student performance
0.8283288942	surprising result
0.8283268160	collage cnn
0.8282989672	map elites
0.8282940284	window sizes
0.8282843552	discrete action
0.8282737598	social sensing
0.8281830736	shape constraints
0.8281502469	probability mass
0.8281289597	softmax output
0.8281147505	graph pooling
0.8281036697	dimensional spaces
0.8280675287	source domain
0.8280260945	manifold regularization
0.8279940896	commodity hardware
0.8279693800	received considerable attention
0.8279688101	community structure
0.8279367024	markov equivalence
0.8279177004	spectral signatures
0.8279167307	proper scoring rules
0.8279137257	linear quadratic
0.8278686602	genetic algorithm
0.8278234068	apprenticeship learning
0.8278023922	source coding
0.8277934712	vr sgd
0.8277921568	linear speedup
0.8277614195	confidence calibration
0.8277389974	positive semidefinite matrix
0.8277086687	topology optimization
0.8276424334	disjoint subsets
0.8276259882	long distance dependencies
0.8275773722	implementation details
0.8275654110	molecular biology
0.8275189177	communication round
0.8275171793	acquisition functions
0.8274862112	distributed computing
0.8274746255	wide applicability
0.8274510883	risk score
0.8274431226	rare disease
0.8273871910	convolution operation
0.8273226676	randomly generated
0.8272617267	perceptual quality
0.8272518032	pooling layer
0.8271793688	causal relationships
0.8271334614	utility functions
0.8270883654	chronic kidney
0.8270459682	contextual multi armed bandit
0.8270436637	linear convergence
0.8269407695	multi output
0.8269090419	regret analysis
0.8268856539	unsupervised feature learning
0.8268810310	scalable inference
0.8268630940	traffic sign recognition
0.8268437396	event log
0.8268172102	poisson factorization
0.8267761936	content based
0.8267702454	class probabilities
0.8266655325	error bound
0.8266346510	circulant matrices
0.8265905724	softmax operator
0.8265747293	bias variance
0.8265629343	continuous relaxations
0.8264240934	target speaker
0.8264217273	laplace kernel
0.8263895719	rule mining
0.8263113554	temporal correlations
0.8262874414	convex problems
0.8262750169	stock price prediction
0.8262499684	heat maps
0.8262476651	epsilon machines
0.8262135112	artificial neural
0.8262017948	raw sensory
0.8261505090	singular spectrum
0.8261456606	continuous valued
0.8261414808	anomaly scores
0.8261151517	fully connected layers
0.8260799044	greater flexibility
0.8260757559	white box attacks
0.8260347886	context free
0.8259750453	posterior probabilities
0.8259163820	evaluation metrics
0.8259089163	session based recommendation
0.8258233679	online learning
0.8257592198	model averaging
0.8257475627	constraint based
0.8257465917	low rank approximations
0.8257243521	approximate bayesian
0.8257205638	text dependent speaker verification
0.8257044646	mutual information maximization
0.8256167473	random noise
0.8255954344	sparse group lasso
0.8255785993	low rank factorization
0.8255634358	experimental setup
0.8255477560	hyperparameter values
0.8255475015	ecg signals
0.8254718450	active learner
0.8254256446	regression problems
0.8253859228	low sample size
0.8253753217	generative adversarial imitation learning
0.8253232302	edge intelligence
0.8252680144	dynamically changing
0.8252468283	bayesian network
0.8252221255	gaussian random field
0.8252074116	unobserved variables
0.8251912163	random matrix
0.8251887545	fourier coefficients
0.8251571148	black box adversarial attack
0.8251037140	rapid progress
0.8250901238	state spaces
0.8250380995	high confidence
0.8250207564	network pruning
0.8250066741	vocabulary size
0.8249156140	exponentially fast
0.8248949642	black box optimization
0.8248471771	bias corrected
0.8248147233	max cut
0.8247580734	language understanding
0.8247234044	population risk
0.8246808272	norm minimization
0.8246695449	sensitivity analyses
0.8246639240	network science
0.8246264624	regression tree
0.8245932021	undersampled measurements
0.8245838917	opinion dynamics
0.8245468385	data fusion
0.8245387956	subgradient method
0.8245286224	received considerable
0.8245247261	modality invariant
0.8245232779	linear svm
0.8245191545	deep learning frameworks
0.8245090581	invariant risk minimization
0.8244980940	jacobian matrix
0.8244602348	sparse vector
0.8244558303	standard deviations
0.8244550873	sequential data
0.8244453207	cost functions
0.8243675699	convolutional architectures
0.8243411127	cryo electron
0.8243391312	template matching
0.8242895558	convolution operator
0.8242831559	external memory
0.8242568407	product distributions
0.8242257956	dnn accelerators
0.8242210151	demand response
0.8242185362	function evaluations
0.8242114044	spectral graph
0.8242012828	demographic groups
0.8241929304	modality specific
0.8240539238	agent chooses
0.8240284175	term frequency
0.8240173008	low level
0.8239668569	water quality
0.8239329111	correlation matrices
0.8238823518	nonnegative matrices
0.8238725059	locally adaptive
0.8238348971	traffic management
0.8237916339	global average pooling
0.8237468031	mild conditions
0.8237088214	boolean matrix factorization
0.8236896263	drug development
0.8236364688	nonsmooth convex
0.8236166921	group level
0.8235078347	domain expertise
0.8234605664	visual object recognition
0.8233980222	collective classification
0.8233947239	strongly log concave
0.8233824051	predictive power
0.8233803007	margin based
0.8233602588	convolutional lstm
0.8233118683	synaptic weights
0.8233024060	independence assumption
0.8232071362	single index
0.8231514899	communication efficiency
0.8231371417	adversarial risk
0.8231224012	structured output prediction
0.8231135124	computational resources
0.8230313253	approximation ratio
0.8230288728	selective inference
0.8230071669	future directions
0.8229966877	cluster center
0.8229838904	speech segments
0.8229771826	correlation screening
0.8229678518	sparse representations
0.8228763343	strong duality
0.8228473505	mathematical expressions
0.8228355534	weight matrices
0.8228271025	learning rate
0.8228114284	quantum enhanced
0.8227119249	ct image reconstruction
0.8227017064	triplet comparisons
0.8227000670	biomedical research
0.8226934348	single view
0.8226872934	autoencoder based
0.8226356501	greedy policy
0.8226022790	stance detection
0.8225934042	synthetic data
0.8225536265	fair machine learning
0.8225280579	single particle
0.8225145015	fully connected layer
0.8224374317	sigma point
0.8224224386	extrinsic reward
0.8224022246	biomedical literature
0.8223494997	tuning parameter selection
0.8223271381	generalized linear
0.8222926193	synthetic images
0.8222820739	error prone
0.8222793961	band limited
0.8220934719	representational similarity
0.8220808545	large batch training
0.8220318633	local search
0.8220279835	gene expression data
0.8220168445	provably efficient
0.8220118882	recommended items
0.8219881970	easily accessible
0.8219879220	computational intelligence
0.8219816825	highway network
0.8219703139	robust subspace recovery
0.8219304637	data analytics
0.8218819821	graph representation
0.8218627107	planning horizon
0.8218562761	times series
0.8218232801	high quality
0.8217905704	partial feedback
0.8217903240	corner cases
0.8217593677	mobile robot
0.8217337190	mutually independent
0.8217018147	tailed losses
0.8216797277	structure preserving
0.8216565191	local minimizer
0.8216451324	graph signal processing
0.8215871010	statistical leverage scores
0.8215862655	budget constraint
0.8215671827	graph generation
0.8215412230	statistical tests
0.8215137459	agent's policy
0.8214466472	preliminary results
0.8214098825	trajectory prediction
0.8213821868	sigmoid function
0.8213797024	molecular structure
0.8213354140	overlapping group lasso
0.8213318902	mixture modeling
0.8213062256	kernel hilbert space
0.8212922075	point wise
0.8212538358	deep residual
0.8212190018	state abstraction
0.8211715363	panel data
0.8211457467	convolutional kernels
0.8211423690	orthogonal matrices
0.8210856744	student teacher
0.8210663118	open domain
0.8210493445	policy gradient methods
0.8210161595	event driven
0.8209951650	reality gap
0.8209950965	measurement vectors
0.8209387739	precision floating point
0.8209335919	amp chain graphs
0.8208693502	domain invariant
0.8208514901	feature crossing
0.8208135932	clinical data
0.8208119236	heavy tailed distributions
0.8207828031	theoretic perspective
0.8207771822	harmonic analysis
0.8207359484	preference based
0.8207330722	auc roc
0.8207099531	linear systems
0.8207020036	rl agents
0.8206624967	monotone submodular function
0.8206405025	mitigation strategies
0.8205945133	fundamental frequency
0.8205616526	impossibility results
0.8205393148	locally optimal
0.8205238910	manual effort
0.8205231044	bidding strategy
0.8204988071	annotated dataset
0.8204800063	euclidean geometry
0.8204501582	ensemble diversity
0.8204125029	sum product networks
0.8203856104	traveling salesman problem
0.8203807437	augment reinforce
0.8203779783	random initializations
0.8203620528	white box attack
0.8203528001	gradient estimators
0.8203265455	protein protein interactions
0.8202642786	audio synthesis
0.8202578152	preference learning
0.8202541841	asymptotic variance
0.8202477679	trace norm regularization
0.8202375933	mixed linear regression
0.8202276228	tensor train
0.8202180826	tree based
0.8202065631	readout layer
0.8201200692	inherent difficulty
0.8200754901	video compression
0.8200624662	cpu gpu
0.8200349791	stochastic convex optimization
0.8200282866	relu activations
0.8199054369	order statistics
0.8198389389	neural tangent
0.8198235598	partially observable markov decision process
0.8197948385	binary classifier
0.8197811604	noise levels
0.8197560453	class conditioned
0.8197453300	column wise
0.8197208156	plackett luce model
0.8197050713	neural turing machines
0.8196986931	naturally suited
0.8196749291	toy examples
0.8196748752	deep forest
0.8196448329	intractable likelihood
0.8195752880	human feedback
0.8195628555	stochastic gradient markov chain monte carlo
0.8195444598	multiclass svm
0.8195121427	extreme learning machines
0.8195093658	scaling law
0.8195091756	intrinsic rewards
0.8194914675	probability tables
0.8194829479	rademacher complexity bounds
0.8194601130	deep convolutional neural networks
0.8193901313	audio visual
0.8193626441	tree structures
0.8193226135	data dependent
0.8193174307	manually designed
0.8193004843	past experience
0.8192238846	nonconvex regularizers
0.8192189275	sparse matrices
0.8192096365	weight matrix
0.8191607777	success rate
0.8188827974	cellular networks
0.8188206396	dynamic treatment regimes
0.8187642840	optimal power flow
0.8187304477	valuable insights
0.8186672960	multiple antennas
0.8186612108	cran.r project.org
0.8186401241	strong convexity assumption
0.8186159837	linear combination
0.8185918832	bilinear games
0.8185914256	minimal effort
0.8185532580	memory buffer
0.8185487934	true labels
0.8185393797	singular value decomposition
0.8185292014	unlabeled examples
0.8185117784	automatic speech
0.8184339155	discriminative features
0.8184117893	sequential recommendation
0.8184053680	topic modelling
0.8184046338	long term dependencies
0.8184026127	concentration bounds
0.8183713259	high speed
0.8183016720	inference attacks
0.8183006870	theoretical guarantee
0.8182796425	deterministic policy gradients
0.8182274937	fundamental limits
0.8181864908	imaging modalities
0.8181514722	mathematically rigorous
0.8181343063	convolutional kernel
0.8181213059	tree structure
0.8180728437	replacement sampling
0.8180416634	post hoc explanations
0.8180349402	slightly worse
0.8179789382	optimally tuned
0.8179734816	sampling strategies
0.8178605319	mode coverage
0.8178419723	human eyes
0.8178334439	deep cnns
0.8178257947	risk aware
0.8177862815	model free
0.8177611016	primary contribution
0.8177355115	norm constraint
0.8177216132	distributed sgd
0.8177094714	greedy algorithms
0.8176778754	prox svrg
0.8176514950	task specific
0.8176407014	abstract reasoning
0.8176138332	dirichlet process mixtures
0.8175374023	logged data
0.8175062002	data acquisition
0.8174949986	synthetic aperture
0.8174914577	learning rate decay
0.8174786649	graph topology
0.8174755667	oriented dialogue
0.8174705001	unbiased risk estimator
0.8174485507	sparsity pattern
0.8174475918	macro f1 score
0.8174378279	medical diagnoses
0.8174091885	multi stream
0.8174026616	gradient variance
0.8173959730	hash code
0.8172803470	low tubal rank
0.8172788603	mixed norm
0.8172664538	medical diagnostics
0.8172215120	statistical guarantees
0.8171817713	simultaneous perturbation stochastic
0.8171723165	linear measurements
0.8171245728	network width
0.8170974465	resource efficient
0.8170587919	optimal treatment regimes
0.8170571976	sparse vectors
0.8170296703	stacked autoencoder
0.8169461306	kernel density estimators
0.8169209577	cross correlation
0.8169100786	artificially generated
0.8168669561	auxiliary variable
0.8168511292	oc svm
0.8168378174	model agnostic meta learning
0.8168325000	graphical modeling
0.8168314952	ordinary least squares
0.8168183596	statistically consistent
0.8167940390	resource usage
0.8167516662	semantic meaning
0.8167425846	machine learning pipelines
0.8167007881	cycle consistent adversarial
0.8166809356	ear eeg
0.8166599485	influence function
0.8166597030	interpretable representations
0.8166544743	hash function
0.8166344313	cycle consistent
0.8166315315	road segment
0.8166019203	successor features
0.8165893312	similarity metric
0.8165159071	markov equivalence class
0.8165009769	deterministic annealing
0.8165002490	pr auc
0.8163803743	minimax lower bound
0.8163792070	brain images
0.8163689239	mel frequency
0.8163528487	multilevel monte carlo
0.8163254218	max value entropy search
0.8162948073	cluster assignment
0.8162603676	latent positions
0.8162031666	characteristic function
0.8161476716	regularizing effect
0.8161190828	stochastic multi armed bandits
0.8161063896	audio signals
0.8160669749	template free
0.8160481116	complete dictionary
0.8160132930	multi domain
0.8160091918	success rates
0.8159968091	class conditional
0.8159815298	distribution grids
0.8159759380	person re identification
0.8159609214	large batch sizes
0.8159466199	technical report
0.8159440989	error propagation
0.8159226090	industrial applications
0.8159212115	byzantine attacks
0.8159162453	tuning parameters
0.8159096948	order tensors
0.8158740238	preprocessing step
0.8158324034	convex duality
0.8158223923	posterior inference
0.8157308062	programming interface
0.8156690180	linear algebraic
0.8156265175	lower level
0.8156013463	objective functions
0.8155942998	cycle consistent generative adversarial
0.8155705035	large graphs
0.8155293805	item cold start problem
0.8154340916	model fitting
0.8154283265	pool based active
0.8154062336	acoustic model
0.8153845740	parameter spaces
0.8153173749	solar forecasting
0.8153013917	single image super resolution
0.8153000041	sparse principal component analysis
0.8152919778	domain adaption
0.8152759084	discrete distributions
0.8151888986	independent cascade
0.8151847034	closely connected
0.8151603553	green's function
0.8151496254	sparse spectrum
0.8150788243	false negative rate
0.8150707552	maximum coverage
0.8150086332	bayes net
0.8149311362	video sequences
0.8149008794	distortion measure
0.8148964556	complexity measures
0.8148786066	huber loss
0.8147799097	kernel based
0.8147321867	counterfactual reasoning
0.8146890234	semantic hashing
0.8146733200	dependence measure
0.8146716335	bayes error
0.8145992778	distributed training
0.8145961453	oracle calls
0.8145078245	experimental evaluation
0.8144994827	prior information
0.8144885717	open source license
0.8144853680	local explanations
0.8144804027	feedforward neural
0.8144629119	density based clustering
0.8144347632	basis function
0.8144221752	counter examples
0.8144158699	partial observations
0.8143788784	piecewise linear activations
0.8143216201	finite sample guarantees
0.8142928542	wasserstein space
0.8141795717	neural ordinary differential equations
0.8141586814	times faster
0.8141492208	random guess
0.8140812305	level sets
0.8140755274	ground metric
0.8140711001	sensitive attribute
0.8140092234	deep metric learning
0.8140030921	permutation test
0.8139568949	relative improvement
0.8139282680	perturbation bounds
0.8139196089	maximum degree
0.8139137921	natural image
0.8138958499	uncertainty sets
0.8138589662	approximate policy iteration
0.8138400013	practically relevant
0.8138305266	random dot product graph
0.8138007891	variants thereof
0.8137788231	recent trends
0.8137445430	particle based
0.8137349855	descent ascent
0.8137335383	measurement errors
0.8137021505	cost savings
0.8136557416	web scale
0.8136251697	generator network
0.8135494128	hardware implementations
0.8135403470	online mirror descent
0.8135202407	dimensional case
0.8135190001	false positive rates
0.8134707119	conditional generation
0.8134650312	small sample sizes
0.8133631500	upper bounded
0.8133523971	landmark selection
0.8133371028	attention layer
0.8133303191	differentially private admm
0.8132824019	event types
0.8132454948	operating characteristic curve
0.8132415707	block structure
0.8131914829	ensemble forecasts
0.8131414915	correlation decay
0.8131203222	length scale
0.8129937518	kernel alignment
0.8129801492	remarkable success
0.8129380972	positive semidefinite matrices
0.8129379661	singular vector
0.8129320005	customer experience
0.8128906532	causal mechanisms
0.8128509968	mcmc sampler
0.8128402108	icu patients
0.8128335395	joint distributions
0.8127894756	adversarial imitation learning
0.8127663152	dynamic graphs
0.8127627086	agent observes
0.8127433761	linear dynamical
0.8127176873	industrial control systems
0.8126976507	supervised hashing
0.8126908587	high stake
0.8125727130	instance wise
0.8125576306	wavelet domain
0.8125446310	communication constraints
0.8125373825	hardware software
0.8124652596	click through rate
0.8123486211	multi agent reinforcement learning
0.8123044413	fair classification
0.8122302963	low rank matrix completion
0.8122068190	drug candidates
0.8121995498	encoder decoder architecture
0.8121635051	gpu days
0.8121611656	regular grid
0.8121591974	surrogate modeling
0.8121257575	trajectory data
0.8121065004	matrix factorizations
0.8120836410	fast convergence
0.8120631182	twitter messages
0.8120105666	video prediction
0.8120081878	bayes rule
0.8120060850	biggest challenges
0.8119538913	mixed integer linear programming
0.8119399308	closed form expression
0.8119370879	average pooling
0.8119322846	object classification
0.8118726915	meta learned
0.8118605596	huber regression
0.8118526787	hamiltonian monte
0.8118526181	imperfect information
0.8118456942	item item
0.8118454914	modulation types
0.8117979917	successive convex
0.8117972443	rl agent
0.8117553076	intersection over union
0.8117535678	recently published
0.8116885625	quadratic forms
0.8116544719	longer sequences
0.8116463420	linear contextual bandits
0.8116375195	class incremental learning
0.8116303395	differential operator
0.8115931204	image dataset
0.8115876638	latent states
0.8115835791	stein's method
0.8115419964	feature ranking
0.8115084640	sample efficiency
0.8114918462	gaussian kernel
0.8114804848	mixture modelling
0.8114582524	recurrent highway
0.8113706442	interpretable model agnostic explanations
0.8113540298	combinatorial bandits
0.8113237427	multi instance
0.8112889961	parallel sgd
0.8112837384	state transition
0.8112708626	data parallelism
0.8112668299	theoretical insights
0.8112616987	vanilla sgd
0.8112351978	wasserstein auto encoders
0.8112287803	directed networks
0.8111746784	hard attention
0.8111715341	starting points
0.8111618512	support set
0.8111539891	cluster recovery
0.8111117036	city wide
0.8110573705	distance covariance
0.8110203711	optimal stopping
0.8110146353	matrix vector products
0.8110142003	threat model
0.8109695486	distribution dependent
0.8108918794	configuration space
0.8108544821	intermediate representation
0.8108023305	language representation
0.8107855351	inverse ising problem
0.8107850241	previously acquired
0.8107472250	regularized empirical risk
0.8107363838	pooling operators
0.8106952859	causal modeling
0.8106939852	higher dimensional
0.8106844563	weight initialization
0.8106772688	feature wise
0.8106470607	deep deterministic policy gradient
0.8105856562	universal consistency
0.8105786620	nonconvex functions
0.8105234939	dialog generation
0.8105212701	approximate posteriors
0.8105181398	wasserstein ball
0.8104951138	pre conditioning
0.8104677440	low rank tensors
0.8104363442	convergence analysis
0.8103785681	misclassification rate
0.8103579627	beta bernoulli process
0.8103459399	quasi periodic
0.8103107713	dependency measure
0.8103102835	latent vectors
0.8103097212	fully convolutional
0.8102498351	proximal quasi newton
0.8101818172	property prediction
0.8101657500	sharp threshold
0.8101518485	compositional generalization
0.8101312347	wireless sensor
0.8101211690	generalized linear model
0.8101006059	relu neural networks
0.8100617655	crop yield prediction
0.8100411404	higher dimensions
0.8100062438	distribution matching
0.8100045392	temporally varying
0.8099920334	uniformly distributed
0.8099108980	spectral gap
0.8099074594	strategic behavior
0.8098994676	computational cost
0.8098989818	minimum error entropy
0.8098916904	pseudo marginal mcmc
0.8098565602	internal representations
0.8098440300	kernel smoothing
0.8098369823	deep reinforcement learning
0.8097617229	lasso type
0.8097082160	condition numbers
0.8096120946	recurrent network
0.8095896338	graph neural networks
0.8095739465	arbitrarily chosen
0.8095429315	feature representation
0.8095336123	free energies
0.8095145482	twin support vector
0.8094836855	sparsest solution
0.8094405572	ls svm
0.8093643739	transform domain
0.8092192064	correlation clustering
0.8091721574	activation maximization
0.8091622464	graph based
0.8091196204	reconstruction loss
0.8091184688	mixing processes
0.8091137264	uncertainty sampling
0.8090953213	single step
0.8090104863	local explanation
0.8089980243	variational family
0.8089831518	query budget
0.8089664053	measurement matrix
0.8089433249	scoring systems
0.8089417196	neuroimaging initiative
0.8089294656	polynomial sample complexity
0.8089088406	main idea
0.8088980086	feature acquisition
0.8088557636	dual coordinate ascent
0.8088278331	multiplicative weights
0.8088259832	sparse graphs
0.8087947211	stochastic dynamics
0.8087361213	hierarchical structure
0.8087289286	optimal policies
0.8087182814	cross domain recommendation
0.8087120647	hardware implementation
0.8087044211	regularized regression
0.8086359793	markov jump processes
0.8086340600	stage wise
0.8085733745	cubic regularized
0.8085475072	source domains
0.8085309911	degree distributions
0.8085153318	continuous distributions
0.8085102892	information maximization
0.8084655359	finite sum optimization
0.8084648143	hierarchical organization
0.8084584912	memory savings
0.8084451546	equivalence class
0.8084341378	multimodal data
0.8084301796	citation networks
0.8083914916	desirable properties
0.8083679752	markov property
0.8083591836	complex systems
0.8083448252	poly log
0.8083431630	hyperparameter configurations
0.8083344313	proximal methods
0.8083248164	fixed sized
0.8082837836	unrealistic assumptions
0.8082442858	research questions
0.8081764952	unbalanced optimal transport
0.8081657691	image super resolution
0.8081418340	chi square test
0.8080887528	disagreement based
0.8080566091	determinantal point
0.8080202343	systematic investigation
0.8080020125	energy saving
0.8079748688	adversarial patches
0.8079739282	multilayer network
0.8079712336	ordinary differential
0.8079372837	continuous variables
0.8078983478	embedding vectors
0.8078694044	penalized estimation
0.8078180282	structural constraints
0.8077981403	structure discovery
0.8077676945	variational posterior
0.8077035835	convolution layer
0.8077031049	affinity matrix
0.8076948793	prototype based
0.8076916848	fast gradient sign
0.8076599209	highly desirable
0.8075887845	stable recovery
0.8075106238	signal detection
0.8074961381	sensor failures
0.8074764150	class label
0.8074303847	runtime complexity
0.8073849818	feature pyramid
0.8073540313	hidden representations
0.8073537269	partially observable markov decision processes
0.8073505102	end users
0.8073319756	asymptotic theory
0.8073101897	data processing
0.8073016123	brain age
0.8072958462	nomination scheme
0.8072772080	langevin algorithm
0.8072749177	structured sparse
0.8072573061	regularity assumptions
0.8072476416	auxiliary classifier
0.8072394936	demand prediction
0.8071931761	adversarial inputs
0.8071824423	mid level
0.8071539756	eeg recordings
0.8071019034	cross modal hashing
0.8070921330	theoretical findings
0.8069683626	computational complexity
0.8069558673	exponential convergence
0.8069321489	spatial information
0.8069296723	high stakes applications
0.8069285302	previous attempts
0.8068749697	maximum mean discrepancy
0.8068617151	safety critical systems
0.8067898715	knowledge graph embeddings
0.8067869163	expression data
0.8067815765	user clicks
0.8067629177	bipartite networks
0.8067482293	health management
0.8066696108	patient records
0.8066307660	straightforward extension
0.8065955039	nonlinear systems
0.8065548263	pairwise ranking
0.8065522143	fixed points
0.8064867377	quadratic programs
0.8064763386	scales poorly
0.8064415083	uci datasets
0.8064137078	short horizon
0.8064042278	input noise
0.8063916531	sensitive information
0.8063775443	bayesian personalized ranking
0.8063743160	sparse inverse covariance estimation
0.8063420679	patch level
0.8062589816	cox model
0.8062581145	missing value imputation
0.8062450859	unbiased estimators
0.8061620313	face images
0.8061535102	state dependent
0.8061369559	community recovery
0.8061359881	degree heterogeneity
0.8061192438	multi goal
0.8060949856	false negative
0.8060913382	permutation tests
0.8060025888	quantum state tomography
0.8059959136	asynchronous distributed
0.8059847335	regularity condition
0.8059707890	shrinkage priors
0.8058555672	energy based
0.8058500649	zo svrg
0.8058153334	efficient exploration
0.8057920774	koopman operator
0.8057796982	tree master
0.8057264799	class labels
0.8056990988	visual explanations
0.8056968079	quasi monte carlo
0.8056408996	minimum eigenvalue
0.8056250618	association studies
0.8055610461	local convergence
0.8055163992	flow based
0.8054308349	user activity
0.8053661556	predictive entropy search
0.8053443454	high probability
0.8053028838	relu network
0.8052697276	performance guarantee
0.8052450856	recent papers
0.8052176602	bayesian information criterion
0.8051916740	operator splitting
0.8051875771	semantic relatedness
0.8051863307	ultra low power
0.8051047043	minimum energy
0.8050848221	adjustment sets
0.8050520557	road users
0.8050497468	cnn architectures
0.8050393377	recent advancement
0.8050042620	score based
0.8049486614	excess risk bound
0.8048545191	signal strength
0.8048137792	leading eigenvector
0.8047980152	sparse representation
0.8047580532	high capacity
0.8047502559	saddle point problem
0.8047451172	noise free
0.8047253640	canonical correlations
0.8047126310	weather data
0.8047006384	combinatorial problems
0.8046452770	nonlinear programming
0.8046277747	gradient updates
0.8045876454	newton method
0.8045835389	layer normalization
0.8045624807	open question
0.8045195272	model free reinforcement learning
0.8045181001	scientific computing
0.8045036221	kg embedding
0.8044780214	feature representations
0.8044464739	ehr data
0.8044430524	bayesian additive regression trees
0.8043722555	channel estimation
0.8042829244	adversarial autoencoders
0.8042763911	tensor networks
0.8042405486	chain event
0.8041455607	privacy guarantee
0.8041026310	functional magnetic resonance
0.8040280535	initialization scheme
0.8040128814	generalization errors
0.8039751427	test error
0.8039653571	physics based
0.8039443252	minority groups
0.8039228000	poorly calibrated
0.8038924614	markov networks
0.8038868611	margin loss
0.8038654325	regularization parameter
0.8038372863	carefully selected
0.8038278019	parametric assumptions
0.8037894855	audio processing
0.8037654625	transportation systems
0.8036907086	low probability
0.8036803323	volume preserving
0.8036263258	scientific papers
0.8035825836	gradient based
0.8035268823	fuzzy rule
0.8034988609	group structure
0.8034701880	remains largely unexplored
0.8034483209	correlated noise
0.8034284202	twitter users
0.8034119240	latent state
0.8034105949	seminal paper
0.8033983949	light weight
0.8033395183	shows promise
0.8033144764	patient care
0.8032519574	memory overhead
0.8032358366	submodular function minimization
0.8031776903	learning curves
0.8031677125	policy gradient theorem
0.8031669695	empirical evidence
0.8031557419	bayesian filtering
0.8031543706	reward function
0.8031524530	sufficiently large
0.8031258615	process mining
0.8030997809	normative modeling
0.8030817686	competitive ratio
0.8030389872	explicit regularization
0.8030091383	adaptive learning rate
0.8029365798	short text
0.8029307630	image recovery
0.8029218013	feed forward neural networks
0.8028825194	group testing
0.8028714158	consistently outperform
0.8027928643	discrepancy measure
0.8027819400	transfer function
0.8027277578	graph attention network
0.8027245754	design choices
0.8027155307	sequencing technologies
0.8026872759	nesterov's accelerated gradient method
0.8026100767	squared distances
0.8025964057	eeg data
0.8025937889	joint training
0.8025760047	utmost importance
0.8025133965	user authentication
0.8024364349	data generation
0.8024050685	word mover's
0.8023853083	dropout regularization
0.8023767954	continuous action space
0.8023529282	generative flows
0.8023323677	domain alignment
0.8022999657	causal graph
0.8021990432	text description
0.8021762609	convex geometry
0.8021117916	posterior distribution
0.8020526995	vanilla rnn
0.8020141437	pac bayes bounds
0.8019994529	cumulative rewards
0.8019936195	clean data
0.8019865184	lipschitz constraint
0.8019483258	generalization abilities
0.8019402409	rating matrix
0.8019266105	shown promise
0.8019207017	incoherence conditions
0.8018944979	document clustering
0.8018912494	key idea
0.8017936932	urban dynamics
0.8017247427	mixed integer optimization
0.8016965500	mixture components
0.8016837872	stochastic control
0.8016759191	data sources
0.8016542782	normalized nonnegative
0.8015292643	bi lstm
0.8014661713	computational efficiency
0.8014302886	critically ill patients
0.8014074966	heterogeneous data
0.8014067230	fourier series
0.8013395065	labeled examples
0.8013294305	low dimensional manifolds
0.8013188293	minimax rate
0.8012367252	evidence supporting
0.8011923832	behavior policy
0.8011683871	kernel matrix
0.8011547410	imagenet ilsvrc
0.8011335461	inter layer
0.8011081886	object representations
0.8010452967	prevent overfitting
0.8010391938	performance metrics
0.8010371163	fully observed
0.8010292053	medoids clustering
0.8010290100	selection problem
0.8010134667	ensemble kalman
0.8009641461	main technical contribution
0.8009438502	gmm kernel
0.8009142793	gaussian process modulated
0.8008864375	update step
0.8008792465	multi granularity
0.8008695465	fixed point iteration
0.8008462225	accurately predict
0.8008443176	model interpretation
0.8008288196	detailed description
0.8008133121	biological networks
0.8007969571	level set
0.8007657640	adaptive lasso
0.8007528165	temporal difference learning
0.8007479533	mild assumptions
0.8007235234	correctly classify
0.8007004888	ground truth labels
0.8006990933	efficient sampling
0.8006977658	rectifier networks
0.8006969870	network compression
0.8005983248	efficient inference
0.8004563160	recent years
0.8004538467	differentiable architecture search
0.8004343195	visual navigation
0.8003804534	symbolic representation
0.8003666108	preliminary study
0.8003501426	artificial datasets
0.8002634130	wishart distribution
0.8002598581	exploration strategy
0.8001812609	traffic speed
0.8000809279	scene flow
0.8000722115	systems biology
0.8000133677	conditional moment
0.7999921449	neural ordinary differential
0.7999891568	edge detection
0.7998466867	robust regression
0.7998077498	mad gan
0.7998054554	received increasing attention
0.7997537249	natural language generation
0.7997313864	higher order interactions
0.7997118271	fine scale
0.7997064969	density function
0.7996824073	spectral normalization
0.7995897819	histopathology images
0.7995789236	multiple access
0.7995344714	false discovery rate control
0.7995213718	post selection inference
0.7994890821	sampling schemes
0.7994564256	sound source
0.7994479135	chemical structure
0.7993951601	root mean square
0.7993936885	semi bandit
0.7993519609	concave convex
0.7993318321	hamiltonian systems
0.7993281871	highly scalable
0.7993108276	random vectors
0.7992905261	visual representations
0.7992821346	clustered lasso
0.7992517690	signed networks
0.7992490391	minimax optimal rates
0.7991784703	acoustic features
0.7991724151	medical codes
0.7991446359	limited memory
0.7991332295	molecular dynamics simulations
0.7991257214	norm ball
0.7990928226	evolutionary algorithms
0.7990763748	motion prediction
0.7990726216	defect detection
0.7990473793	data cleaning
0.7990299630	high performance computing
0.7990206426	clustering algorithms
0.7989532718	synthetic oversampling
0.7989486057	video generation
0.7989364418	sound separation
0.7989220782	molecular property
0.7988194604	cox regression
0.7987863569	performance improvement
0.7986719116	mixed variable
0.7986332268	secondary structure
0.7985386688	human intelligence
0.7985372606	parallel corpora
0.7985306946	robustness guarantees
0.7984889204	sensory inputs
0.7983425789	object detector
0.7983298079	human action recognition
0.7983210087	smoothness assumption
0.7982957102	lead ecg
0.7982941569	semi supervision
0.7982639966	nonparametric density estimation
0.7981805235	sequential design
0.7981483858	technical contributions
0.7981455832	connectivity patterns
0.7981223718	convolution filters
0.7980930832	decentralized marl
0.7980787889	weight space
0.7980588449	drawing connections
0.7980146140	machine intelligence
0.7980102397	network's output
0.7979983301	small scale
0.7979817174	medical history
0.7979429501	parameter values
0.7978988999	attracted considerable attention
0.7978945456	evaluation criteria
0.7978163070	previous works
0.7977112098	l_ 2,1
0.7977075762	parallel computing
0.7976662485	spectral norm
0.7975730184	safety critical applications
0.7975544218	highly efficient
0.7974996077	theoretically sound
0.7974966147	level set estimation
0.7974853033	hypothesis classes
0.7973989766	task relevant
0.7973327976	predictive distributions
0.7973210389	mobile games
0.7972877044	image analysis
0.7972679218	hessian approximations
0.7972156967	saliency detection
0.7971601666	current iterate
0.7971436107	ambient dimension
0.7971260196	hybrid model
0.7971017471	substantial improvements
0.7970809099	consistently outperforms
0.7970558480	target labels
0.7970404079	supervised machine learning
0.7970139941	human activities
0.7969963847	iteratively reweighted least squares
0.7969335274	dependent label noise
0.7968550725	momentum based
0.7968025264	generalized hyperbolic
0.7967875419	minimax rate optimal
0.7967839529	deep taylor
0.7967827762	proportion estimation
0.7966998552	low density
0.7966908306	human experts
0.7966888255	continuous space
0.7966598531	boosting algorithm
0.7965921846	avoiding overfitting
0.7965886488	truth discovery
0.7965850280	hyperspectral image classification
0.7965848149	grand challenge
0.7965742947	basic building block
0.7965716137	minibatch size
0.7965071908	stein variational gradient
0.7965000909	central question
0.7964745046	message passing algorithm
0.7964706112	spectral analysis
0.7964519233	convolutional neural nets
0.7964492767	nlp tasks
0.7963949290	meta des
0.7963844165	target distribution
0.7963796530	stacked lstm
0.7963749695	expected revenue
0.7963748732	edge features
0.7963385015	sparsity inducing penalty
0.7963206645	human perception
0.7962852307	external knowledge
0.7962487528	computational aspects
0.7962430896	discrete data
0.7962331386	latent semantic analysis
0.7961876422	affine constraint
0.7961832856	cnn architecture
0.7961658672	patient populations
0.7961617369	component wise
0.7961168088	disease classification
0.7960993032	structured data
0.7960797129	raw sensor data
0.7960756412	adversarial networks
0.7960417316	sparse principal component
0.7960309273	great success
0.7960274309	ct reconstruction
0.7960207231	gradient penalty
0.7960001789	graph attention networks
0.7959945913	invariant representation
0.7958810584	local region
0.7958243745	emotional state
0.7958042220	numerical stability
0.7957860071	latent vector
0.7957306535	downstream tasks
0.7956787606	graph representation learning
0.7956644441	random variable
0.7956578127	language generation
0.7954812074	repeated games
0.7954577823	unique challenges
0.7954008055	treatment plans
0.7953942174	multi source domain adaptation
0.7953799385	bayesian neural networks
0.7953197192	output layer
0.7953196843	linear classifier
0.7952970075	digit classification
0.7952884305	activation maps
0.7952840030	data sets
0.7952794112	outlier ensembles
0.7952643665	class specific
0.7952262636	hamming space
0.7952160135	post processed
0.7952024392	filter pruning
0.7951925974	elastic net regularization
0.7951916607	node level
0.7951690846	cloud based
0.7951630474	sampling bias
0.7951461061	unstructured pruning
0.7951355262	classification error
0.7951313033	primitive actions
0.7951142686	probabilistic program
0.7951043448	semi bandits
0.7951005058	cnn based
0.7950880396	additive model
0.7950233858	functional data analysis
0.7949898251	local features
0.7949312532	faster training
0.7949108928	lstm networks
0.7949051812	power spectral density
0.7948924777	graph neural network
0.7948721788	future frames
0.7948050958	accuracy drop
0.7946258068	greatly reduces
0.7945220107	model interpretability
0.7945195915	asymptotic bias
0.7945087417	brain signal
0.7945025061	drastically reduce
0.7945024347	poisson noise
0.7944616887	boltzmann exploration
0.7944447320	adversarial noise
0.7944276090	audio classification
0.7943976162	label prediction
0.7943852197	interpretable machine learning
0.7943840515	complex dynamics
0.7943735006	utility maximization
0.7943541460	tight regret bounds
0.7943150955	mr image
0.7942844806	characteristic kernels
0.7942446989	normalized maximum likelihood
0.7942271963	information acquisition
0.7942106304	probability theory
0.7941951669	rank approximation
0.7941779911	closed form solutions
0.7941745104	handling missing data
0.7941115823	concave minimax
0.7941031084	gradient compression
0.7940448361	communication systems
0.7940345945	unrealistic assumption
0.7940263765	noisy measurements
0.7939810634	unbiased estimator
0.7939371330	bandit convex optimization
0.7939166998	stopping rules
0.7938918307	labeled samples
0.7938756506	embedded platforms
0.7938735785	velocity field
0.7937762268	estimating treatment effects
0.7937706821	intermediate representations
0.7937360806	local updates
0.7937133525	medical data
0.7937060405	attributed networks
0.7936756781	software development
0.7936145623	individual level
0.7935908801	electron density
0.7935729084	piece wise linear
0.7935227566	spatial dependency
0.7934932418	online newton step
0.7934914999	graph representations
0.7934867657	polynomial kernels
0.7934724567	distributional assumptions
0.7934511796	traffic speed prediction
0.7933952112	superior performances
0.7933582458	switching linear dynamical
0.7933369370	fitted q iteration
0.7932997527	pde net
0.7932354207	reference points
0.7932282617	pairwise potentials
0.7932190146	block sparse signals
0.7931600935	information propagation
0.7931313834	learning rate schedules
0.7931283396	fully automated
0.7929716876	pgd attacks
0.7929349734	exponential family distributions
0.7929276452	image pixels
0.7929215004	gradient boosting decision trees
0.7929031276	risk bound
0.7928663662	high density
0.7928620951	overlapping clusters
0.7928296742	deep neural net
0.7927871099	image formation
0.7927153323	data augmentations
0.7926903207	state representations
0.7926566511	maximal correlation
0.7926425728	spectral algorithms
0.7925823788	maximally predictive
0.7925717174	molecular structures
0.7925617754	dimension free
0.7925391710	cross modal retrieval
0.7925070505	resource constraints
0.7925000964	bsp tree
0.7924912742	continuous functions
0.7924248912	kronecker structured
0.7924208053	optimal rates
0.7923956884	state variables
0.7923938765	significance level
0.7922810055	row sparsity
0.7922744512	stochastic games
0.7922551752	learning rule
0.7922508230	incremental gradient
0.7921692776	main result
0.7921573877	text data
0.7920876761	complex networks
0.7920645513	fisher information matrix
0.7920025546	decision rule
0.7919959536	auxiliary loss
0.7919600762	language pairs
0.7918828941	conversational agents
0.7918609897	residual flows
0.7918469088	interaction screening
0.7918279112	kaczmarz algorithm
0.7917882980	stochastic recursive
0.7917540540	limiting factor
0.7917540326	power method
0.7917391645	pareto set
0.7916857748	multi output gaussian process
0.7916657024	video data
0.7916529315	demographic attributes
0.7915124519	density based
0.7915086504	optimality condition
0.7914949948	irrelevant features
0.7914747547	early fusion
0.7914155542	variational inequality
0.7913724434	siamese networks
0.7913449235	quality metrics
0.7913253036	perturbed inputs
0.7913006794	physical sciences
0.7912614922	large batch
0.7912524363	relational learning
0.7911915310	consistency regularization
0.7911900626	multi subject
0.7911719838	common pitfalls
0.7911420401	lstm based
0.7911413201	subspace learning
0.7911358976	distance measure
0.7910907550	cost aware
0.7910465270	group invariant
0.7910164495	sparse matrix
0.7910120200	redundant features
0.7909905568	budget constraints
0.7909828543	coverage probability
0.7909550146	microarray gene expression
0.7909530642	l2 regularized
0.7909203846	arbitrarily long
0.7909057814	quasi norm
0.7908883674	tuning hyperparameters
0.7908549726	nearest neighbor classifier
0.7908127837	open problem
0.7908053108	bayes factor
0.7907594549	ac gan
0.7907468771	factor model
0.7907424701	cp rank
0.7905664103	collaborative learning
0.7905493274	stable rank
0.7904797021	entropy minimization
0.7904674716	continually learn
0.7904666264	uncertainty measures
0.7904120581	generalization ability
0.7903781054	structural risk minimization
0.7903547757	density derivative
0.7903174802	statistical significance
0.7902754689	machine learning pipeline
0.7902269802	random labels
0.7902226034	gained significant attention
0.7901961475	generalization error bound
0.7901782678	primary focus
0.7901561436	unlabelled data
0.7901171320	path norm
0.7900889857	physical activity
0.7900648320	training set
0.7900587048	particle mcmc
0.7899717018	structural information
0.7899349278	accuracy degradation
0.7899186885	clinical outcome
0.7898570558	dna sequences
0.7898548066	hyperparameter settings
0.7898357371	state action pair
0.7898325338	independence criterion
0.7898253335	information transfer
0.7898252942	graph signal
0.7898184534	clean speech
0.7897786473	bayesian posterior
0.7897644153	outlier robust
0.7897594506	user item interactions
0.7897397263	world's largest
0.7896182415	exponentially large
0.7895928791	human centric
0.7895820709	input output pairs
0.7895754434	neural symbolic
0.7894797665	attack success rate
0.7894126963	gaussian process latent variable model
0.7893871283	opinion score
0.7893812010	length scales
0.7893775556	shallow neural networks
0.7893513516	ligand based
0.7893335789	fixed size
0.7892923731	partially observable markov decision
0.7892815083	visual attention
0.7892131502	prediction errors
0.7891718273	wide resnet
0.7891467852	strongly connected
0.7891415832	linear subspace
0.7891070881	scales exponentially
0.7890765308	max entropy
0.7889871622	easily parallelized
0.7889516548	memory augmented neural networks
0.7889125303	multi turn
0.7888997772	asr systems
0.7888085043	user item interaction
0.7888046886	explanatory power
0.7887515389	estimating causal effects
0.7887487892	fixed confidence
0.7887367597	euclidean metric
0.7887362748	incomplete observations
0.7886935075	neighbor nodes
0.7886816619	nonconvex penalty
0.7886804993	outlier score
0.7886612815	closely matches
0.7886598031	visualization tools
0.7886360804	mechanical systems
0.7886193085	perfect reconstruction
0.7886116068	generalized linear bandits
0.7885979284	low data regimes
0.7885886509	pixel space
0.7885300336	edge weights
0.7885077324	class membership
0.7884953206	fully bayesian
0.7884807658	learning rules
0.7884617020	dynamic systems
0.7884496008	machine interfaces
0.7884424104	linear transformations
0.7884170075	purely supervised
0.7883871024	gradient noise
0.7883812370	power production
0.7883310388	jointly trained
0.7883307082	inverse covariance estimation
0.7883190334	user intent
0.7883178715	differentially private federated
0.7882980924	objective function
0.7882412912	incomplete multi view
0.7882356391	mode decomposition
0.7882341913	conditional generative
0.7882167623	iterative shrinkage
0.7881383383	vc classes
0.7881371889	ntk regime
0.7880851887	latent structure
0.7880733992	finite sets
0.7880536199	active inference
0.7880108523	performance degradation
0.7880038496	missing information
0.7879285550	spike timing dependent
0.7879143144	autoregressive model
0.7879116470	multi object tracking
0.7879054382	test sets
0.7878928709	networked agents
0.7878858440	fair clustering
0.7878807887	temporal dependence
0.7878459281	hierarchical bayesian
0.7878334884	main technical
0.7877979508	infected patients
0.7877488966	clickstream data
0.7876815974	performance measures
0.7876665891	autoregressive processes
0.7875790247	optimal design
0.7875673300	independence test
0.7875122127	inverse ising
0.7874551837	session based
0.7874499839	principal component regression
0.7874314385	combinatorial semi bandit
0.7874263030	dirichlet distribution
0.7873871202	constant curvature
0.7873812352	storage capacity
0.7873495645	coefficient matrix
0.7873388140	optimal solution
0.7873240865	ml vamp
0.7873037692	correspondence analysis
0.7872654732	vehicle routing problem
0.7872579865	statistical mechanical
0.7870965859	normalization techniques
0.7870690258	irrelevant variables
0.7870642520	sobolev space
0.7870524360	higher level
0.7870394157	isotropic gaussian
0.7870251057	spiking networks
0.7869900423	ad retrieval
0.7869638787	probability estimates
0.7869110245	function space
0.7869085522	statistical modeling
0.7868656545	special case
0.7868623958	sparse linear
0.7868163973	explore exploit
0.7867526323	risk bounds
0.7866812038	network connectivity
0.7866640021	sparse cca
0.7866553991	cross subject
0.7865766562	tensor based
0.7865517130	chaotic systems
0.7865358139	covariance operator
0.7865256133	diagonal matrix
0.7864909276	likelihood function
0.7864031541	heart rate estimation
0.7863997117	asymptotic properties
0.7863151340	critical point
0.7863071325	importance scores
0.7862933129	fully sampled
0.7862554508	fully convolutional networks
0.7862288948	expected reward
0.7862124857	scientific research
0.7862123968	multiplex networks
0.7861527917	application areas
0.7861456824	gamma distribution
0.7861118757	information plane
0.7860856062	network structures
0.7860231661	regret upper bound
0.7860049205	author topic
0.7859751972	confirmed cases
0.7859601487	stacking ensemble
0.7859469770	multi branch
0.7858774526	splitting method
0.7858763524	control systems
0.7858739008	privacy issues
0.7858594514	convergence properties
0.7858433791	monte carlo methods
0.7858351773	reduced rank
0.7857251766	lasso penalty
0.7857085344	detecting malicious
0.7856674913	underlying structure
0.7856118676	closed loop control
0.7855971461	fewer queries
0.7855625180	target task
0.7854192031	mathematical formulation
0.7853774893	training epochs
0.7853450028	prior probabilities
0.7853380337	convolution operations
0.7853293516	choice model
0.7853285736	image representation
0.7852969962	relation types
0.7852857081	log linear
0.7852428260	latent semantic
0.7852296159	boundary detection
0.7852250165	sequential decision
0.7851923537	statistical learning
0.7851741042	memory access
0.7851043321	information processing
0.7850775229	deep boltzmann machines
0.7850387268	vary greatly
0.7850194646	character level language
0.7850085316	simulation studies
0.7848905013	node pairs
0.7848442060	simplest form
0.7848412031	meta controller
0.7847823600	ensemble method
0.7847684620	gradient boosting machines
0.7847614223	automated machine learning
0.7847541013	differentiable nas
0.7847473031	gaussian approximation
0.7846555948	vector approximate message passing
0.7846286015	speaker embeddings
0.7845490746	causal relationship
0.7845346677	building block
0.7845302199	structurally similar
0.7845249699	effect sizes
0.7845014447	high resolution images
0.7844780660	block sparse
0.7844181466	recommend items
0.7844156309	hand designed
0.7843955734	data analysis
0.7843804085	linear non gaussian acyclic
0.7843593818	wireless sensor networks
0.7843472101	optimality gap
0.7843383609	amortized variational
0.7842802791	noisy observations
0.7841476411	noise variance
0.7841259555	energy management
0.7840645416	open problems
0.7839659279	decision support systems
0.7839369921	dimension independent
0.7839190388	treatment options
0.7839102053	contextual bandit algorithms
0.7839080147	multiple parties
0.7838945244	audio scene
0.7838902132	optimization algorithms
0.7838651968	optimization landscape
0.7838295132	ml csc
0.7838011927	semi automated
0.7837825141	perturbation based
0.7837681947	local sgd
0.7837562569	proximal stochastic gradient
0.7837305201	eigenvalue problem
0.7837057501	high order interaction
0.7836648790	kernel machine
0.7836262346	patient's health
0.7836244488	human action
0.7836145045	discrete wavelet
0.7835578176	random binning
0.7834962720	unified convergence analysis
0.7834658645	heterogeneous networks
0.7833754947	computational costs
0.7833556673	laplacian regularization
0.7833444839	access channel
0.7832928282	targeted attacks
0.7832849389	main effects
0.7832292960	gpu memory
0.7831845926	sample inefficient
0.7830793142	smoothed classifiers
0.7830275432	convex clustering
0.7829918858	vector quantized variational
0.7829648476	latent variable model
0.7829494215	technical contribution
0.7829346952	growth rate
0.7829136373	node labels
0.7828473977	functional data
0.7828306646	achieved remarkable success
0.7827990283	protein protein
0.7827832852	key novelty
0.7827375950	pattern discovery
0.7827149567	traffic flows
0.7826670875	stress testing
0.7826571319	bi linear
0.7826029095	structured outputs
0.7825926278	clean accuracy
0.7825536379	response functions
0.7825469547	cross view
0.7825423457	meta heuristic
0.7824811780	linear complexity
0.7824730476	hand crafted features
0.7824549700	embedding space
0.7824529796	multiple modalities
0.7824405552	dnn based
0.7823115735	logic rules
0.7823008452	private data
0.7822774659	model building
0.7822597843	error exponent
0.7822282104	pooling operations
0.7822077703	navigation tasks
0.7822021527	asymptotic consistency
0.7821351317	tail bounds
0.7821316595	fewer parameters
0.7821303539	entity alignment
0.7821111885	ood samples
0.7820652149	newton step
0.7820608509	estimation error
0.7819384745	computation graphs
0.7819025309	f1 points
0.7818974539	baum welch
0.7818755325	differentiable loss function
0.7818628048	stochastic block
0.7818154537	weighted average
0.7817605092	network structure
0.7817559049	drug drug
0.7817500142	data sharing
0.7817472044	decay rate
0.7817028441	visual stimuli
0.7816889788	prior distributions
0.7816707960	regression coefficients
0.7816330029	appropriately defined
0.7816308305	convergence speed
0.7816042288	potts model
0.7815916992	complex diseases
0.7815879887	multi criteria
0.7815791983	multilayer neural networks
0.7815685524	accurate forecasts
0.7815590531	sampling technique
0.7815542394	cumulative distribution function
0.7815330949	arises naturally
0.7815243137	label space
0.7815120669	approximation guarantee
0.7814993017	complex environments
0.7814594249	running times
0.7814372561	evaluation metric
0.7814062093	theoretically justify
0.7814005678	domain invariant representations
0.7813738990	memory requirement
0.7813667074	bleu points
0.7813626597	strictly positive
0.7813149563	maximum likelihood estimators
0.7813014815	dependency structure
0.7812974134	segmentation masks
0.7812494878	doubly robust estimators
0.7812412883	learn ing
0.7812054404	dictionary elements
0.7811982506	manual intervention
0.7811225216	minimization problem
0.7811034475	cluster size
0.7810998496	heterogeneous causal effects
0.7810791351	robot interaction
0.7810520897	inverse free
0.7810452810	mixture component
0.7810401379	provably recovers
0.7810033450	closely match
0.7809851876	encoding scheme
0.7809809703	nonparametric latent feature
0.7808513941	sparse estimation
0.7808180658	model uncertainty
0.7808141908	gap free
0.7808127089	randomized experiments
0.7808097443	ml systems
0.7808027470	validation accuracy
0.7807788969	model based reinforcement learning
0.7807776777	random subspace
0.7807578038	key quantities
0.7806578946	omics data
0.7806439511	log normal
0.7806395038	linguistic features
0.7806135439	batch active learning
0.7806037563	gradient projection
0.7805936732	penalty parameter
0.7805921960	bounded regret
0.7805916846	sigmoid belief
0.7805858459	minimal assumptions
0.7805494992	approximate posterior
0.7805318544	seasonal patterns
0.7805197925	mixed data types
0.7804989696	sufficient conditions
0.7804721454	classification problems
0.7804183055	nice properties
0.7803821440	constant memory
0.7803360307	multi category
0.7803297914	severely limits
0.7803020551	low shot
0.7802946666	aspect level
0.7802918222	evolution strategy
0.7802839167	commonly adopted
0.7802826535	attribute information
0.7802818280	black box adversarial attacks
0.7802607700	conditional probabilities
0.7802055026	multi task learning
0.7801894191	sample space
0.7801727298	gps trajectories
0.7801587998	observable variables
0.7801188305	noisy gradient
0.7801041500	recent attempts
0.7799976761	single stage
0.7799940456	misclassification rates
0.7799328149	regulatory networks
0.7799003863	variational dropout
0.7798883224	dialogue state
0.7798452558	density functionals
0.7797878438	multi head
0.7797758466	stochastic variational
0.7797115521	wavelet decomposition
0.7796669388	transition matrices
0.7795958416	previously unknown
0.7795950790	empirical study
0.7795792216	adversarial autoencoder
0.7795464707	model parallelism
0.7795248508	mild regularity conditions
0.7795039951	received significant attention
0.7794805409	computational complexities
0.7794596640	interesting insights
0.7794507565	small sample
0.7794081167	clustering techniques
0.7793859727	data visualization
0.7793620659	tuning free
0.7793524081	nuisance functions
0.7793498119	deep gaussian processes
0.7793406436	random vector
0.7793310348	alternating least squares
0.7792787583	nonconvex regularization
0.7792442084	randomized primal dual
0.7792258425	adversarial images
0.7791941480	composite optimization
0.7791613594	numerical experiments
0.7791558322	semi discrete
0.7791092982	manifold structure
0.7790783844	generalized gauss newton
0.7790782841	ai driven
0.7790681874	actor critic algorithm
0.7790534484	marginal distributions
0.7790400988	text based
0.7790381689	target domain
0.7790181647	unprecedented scale
0.7790118565	bnn inference
0.7789998334	unit ball
0.7789926238	decentralized training
0.7789823577	random graph
0.7789394258	weakly supervised learning
0.7788336012	weak recovery
0.7787875982	kernel hilbert spaces
0.7787627269	instance based
0.7787252767	competitive baselines
0.7787089385	data summarization
0.7786733027	gradient boosting machine
0.7786301061	secondary structure prediction
0.7786237083	named entities
0.7786139821	seed set
0.7785955082	edge device
0.7785647915	event data
0.7785375368	computing resources
0.7785274602	bayesian approaches
0.7784800287	linear gaussian
0.7784466315	centroid based
0.7784127421	random feature
0.7784049008	deep convolutional networks
0.7783947918	nuclear norm regularized
0.7783873387	auto tuning
0.7783285039	distance based
0.7783095472	output space
0.7782762903	recent researches
0.7782654876	uniform stability
0.7782621780	mcmc algorithm
0.7782470935	dawid skene model
0.7782255454	convergence proof
0.7782132775	fundamental building block
0.7781621031	recent works
0.7781507355	linear equations
0.7781420215	labeled instances
0.7781064274	theoretical arguments
0.7780721567	sound recognition
0.7780628899	graph regularized
0.7780007769	variational objectives
0.7779537690	trace lasso
0.7779329693	conduct extensive
0.7778308732	random walk based
0.7778114573	function spaces
0.7778003275	neural activity
0.7777770873	feed forward neural network
0.7777558964	technical indicators
0.7777458997	gradient evaluations
0.7777015837	low rank matrix approximation
0.7776758290	unknown classes
0.7776364163	inducing variables
0.7776264878	survival prediction
0.7776143196	group synchronization
0.7775991436	minimax distances
0.7775934505	regularization techniques
0.7775469036	lower variance
0.7775437280	deep relu
0.7775261315	conditional independence testing
0.7774588837	training speed
0.7774496086	statistical machine translation
0.7774246192	predicted labels
0.7773940536	eeg signal
0.7773200384	supervision signals
0.7772891795	input dependent
0.7772841954	task boundaries
0.7772619513	multi output gaussian processes
0.7771558624	low pass filtering
0.7771305315	wind energy
0.7771299792	classification benchmarks
0.7771045521	pooling operation
0.7770577101	multiple instance
0.7769946977	manifold mixup
0.7769924868	perform competitively
0.7769606677	belief network
0.7769113751	robust estimation
0.7768740829	major advances
0.7768702922	hardness result
0.7768637585	gradient coding
0.7768459776	zeroth order optimization
0.7768367788	technical details
0.7768288956	stochastic variance reduction
0.7768257688	recursive neural networks
0.7768177859	open research
0.7767819097	inference engines
0.7766918166	mixed effect
0.7766556748	latent feature
0.7766433132	bayes classifier
0.7766310415	continuous state spaces
0.7766117908	confidence score
0.7766100965	multi head self attention
0.7766098840	stochastic policy
0.7765721032	poor local minima
0.7765666576	provably consistent
0.7765637538	decentralized learning
0.7764590051	descent direction
0.7764247659	cepstral coefficients
0.7764036246	information sources
0.7764001567	high impact
0.7763535877	network reconstruction
0.7763400715	feature selection methods
0.7763257401	findings suggest
0.7762763697	ornstein uhlenbeck process
0.7762585524	block model
0.7762412053	sleep stage classification
0.7762154446	multi target
0.7762120001	single sample
0.7761279445	robust optimization
0.7761183154	discovering causal
0.7761144806	substantial progress
0.7761034022	echo state
0.7760792997	gradient descent converges
0.7760590412	comparative study
0.7760557806	beta divergence
0.7760156126	symmetric nonnegative matrix
0.7759966159	automatically adjust
0.7759326448	significant progress
0.7759047084	combinatorial complexity
0.7758975092	random selection
0.7758716931	experimentally validate
0.7758625898	price prediction
0.7758085941	facial images
0.7757901836	benchmark dataset
0.7756801098	linear projections
0.7756644762	convex surrogate
0.7756584189	brain inspired
0.7756040472	speaker similarity
0.7755931248	rough set
0.7755811654	feature sets
0.7755118140	diffusion process
0.7754652996	experimental setups
0.7754133807	discrete latent
0.7753861430	multi object
0.7753858591	graph clustering
0.7753174179	numerical examples
0.7752726717	dirichlet distributions
0.7752704103	optimality guarantees
0.7752563992	quadratic form
0.7752469480	statistical independence
0.7752380680	gaussian kernels
0.7752285492	undirected graph
0.7751962611	theoretically motivated
0.7751785056	penalty term
0.7751325636	neural network architecture
0.7751111390	sound events
0.7749539822	mixed effects
0.7749043312	biological data
0.7748827765	tree boosting
0.7748573771	generalization capability
0.7748224461	fitness function
0.7747841297	attracted significant attention
0.7747382798	rapid convergence
0.7747143014	goal reaching
0.7747043376	projection matrix
0.7746734039	learning theory
0.7746612494	overconfident predictions
0.7746580953	spectral partitioning
0.7746579097	nonlinear dynamical
0.7746540844	research efforts
0.7745770526	meta features
0.7743358051	regularized logistic regression
0.7743302356	performance bounds
0.7743171410	experimentally validated
0.7742756019	brain network
0.7742686065	pooling operator
0.7742470959	node degrees
0.7742314934	interaction network
0.7742222035	multi class classification
0.7742089410	massive scale
0.7741904768	state action pairs
0.7741741620	english language
0.7741607296	generalization properties
0.7741531879	attack detection
0.7741522721	distributed computation
0.7741362568	batch rl
0.7740946504	naturally arises
0.7740937281	practically feasible
0.7740805588	active search
0.7740545581	probabilistic graphical
0.7740340754	computational load
0.7740246084	sars cov 2
0.7739040365	density ratios
0.7739005946	biologically relevant
0.7738702202	text processing
0.7738493162	input signals
0.7738457573	local optimum
0.7737892616	policy update
0.7737687690	microarray gene expression data
0.7736970012	software systems
0.7736773569	stochastic neighbor embedding
0.7736750725	multi frame
0.7736659397	weighted graph
0.7736452657	continuous state
0.7736258830	matrix product states
0.7736148962	decision regions
0.7736131982	strong baseline
0.7736110711	search algorithm
0.7736101117	process discovery
0.7736044190	loss incurred
0.7735979134	latent functions
0.7735900955	subgraph matching
0.7735644082	similarity function
0.7735569555	tensor methods
0.7735189235	cross entropy loss function
0.7734022275	physical knowledge
0.7733532130	resource limited
0.7733191553	core set
0.7733117426	universal perturbations
0.7732648098	penalty function
0.7732393942	extreme multi label classification
0.7731131387	seismic data
0.7730606006	protein function prediction
0.7730286796	manual segmentation
0.7729757535	architecture design
0.7729751429	optimization problems
0.7729660040	local minimax
0.7729065834	compact representations
0.7728452934	quadratic functions
0.7728415150	primary objective
0.7728191766	exploration strategies
0.7727767329	gradient step
0.7727733971	recent efforts
0.7727583318	perceptual similarity
0.7727325452	lipschitz regularization
0.7726990197	high order interactions
0.7726433341	stationary phase
0.7726136172	compute intensive
0.7725190075	sensitive features
0.7724870122	supervised dimensionality reduction
0.7724319684	recently gained
0.7724226015	dimensional space
0.7723828827	information diffusion
0.7723753426	label ranking
0.7723654452	node wise
0.7723149243	nested sampling
0.7723033895	performance evaluation
0.7722761991	binary variables
0.7722237066	nonlinear transformation
0.7722144131	early detection
0.7722022564	bayesian experimental design
0.7722014773	order proximity
0.7721652538	derivative information
0.7721603062	bias reduction
0.7721114307	binary search
0.7721068966	nonlinear functions
0.7720096713	temporal point processes
0.7720067202	asymptotic convergence rate
0.7719253000	power generation
0.7718481115	linear predictors
0.7718225445	graph based semi supervised learning
0.7717521187	residual learning
0.7717443826	fair representations
0.7717376371	github.com google research
0.7716560499	mallows model
0.7716515146	order moments
0.7714605965	classification rules
0.7714504966	significantly outperforms
0.7714144856	gradient flows
0.7713733037	true positive rates
0.7713702064	reduced variance
0.7713274901	regularization term
0.7713231462	lighting conditions
0.7713169882	rate optimal
0.7712848297	distributional rl
0.7711965178	stacked generalization
0.7711799458	easily implemented
0.7711654918	expected loss
0.7711512436	random feature maps
0.7711456383	human decision making
0.7711235166	variate normal
0.7710919335	high performance
0.7710897808	model's output
0.7710875837	relevant information
0.7710764035	gradient methods
0.7710262970	strongly convex objectives
0.7710244331	real numbers
0.7710042591	sufficiently small
0.7709972248	blackbox optimization
0.7709703161	passive learning
0.7709369112	type ii errors
0.7709044844	feature distributions
0.7708883470	music composition
0.7708592639	intermediate layers
0.7708548673	graph filters
0.7707427515	soft attention
0.7707407041	correctly identify
0.7707271794	neural network architectures
0.7706659144	version space
0.7706324154	online social networks
0.7706291382	functional brain networks
0.7706102871	efficiently computable
0.7705341216	noisy data
0.7705306230	operating characteristic
0.7704519542	ultrasound images
0.7704389419	acoustic modeling
0.7703795627	data compression
0.7703789487	embedding spaces
0.7703152069	equilibrium propagation
0.7703092827	neighborhood selection
0.7702713680	stochastic gradient hamiltonian monte carlo
0.7702516624	network size
0.7702465802	vector fields
0.7702449948	multiple agents
0.7702445804	ground state
0.7702443462	target function
0.7702431734	solved efficiently
0.7702108445	sinkhorn distance
0.7701816533	tensor power method
0.7701737185	evolutionary computation
0.7701352492	user level
0.7701341353	search strategy
0.7701237057	high temperature
0.7700539992	human judgments
0.7699849999	overparameterized neural networks
0.7699842143	poisson distribution
0.7699836510	projection algorithm
0.7699628077	sample selection bias
0.7698867478	disease prediction
0.7698268043	deep resnets
0.7697843231	spatially varying
0.7697421940	treatment response
0.7697378766	wireless systems
0.7697273098	markov model
0.7697187993	weight vectors
0.7696542481	cellular network
0.7696010259	minimum description length principle
0.7695750252	biomedical data
0.7695241774	data preprocessing
0.7695200456	continuous action spaces
0.7695014805	obstructive sleep
0.7694964225	control law
0.7694794275	non intrusive load monitoring
0.7694735499	extensively evaluate
0.7694715121	single source
0.7694655269	autonomous car
0.7694494838	discovery rate
0.7694444273	edge weight
0.7694411177	mmd gan
0.7694207174	extremely large
0.7692984254	private information
0.7692725782	dnn training
0.7692397165	high accuracy
0.7691894148	single task
0.7691796943	consistently improves
0.7691285573	patch based
0.7690804689	textual data
0.7690312564	learning paradigms
0.7690241325	generative priors
0.7689991281	large batches
0.7689983468	row space
0.7689955421	penalized logistic regression
0.7689831872	semi supervised node classification
0.7689504642	base classes
0.7689098120	intensity functions
0.7688312054	inverse optimal control
0.7687929302	model extraction
0.7687775839	locally differentially private
0.7687761087	key contributions
0.7687670132	defense strategies
0.7687480078	predictive process monitoring
0.7687282062	factor matrices
0.7686715304	experiment design
0.7686706480	structural causal model
0.7686669745	quantum advantage
0.7686639968	td learning
0.7686455807	binary hashing
0.7686433632	extensive simulations
0.7685930554	matrix sketching
0.7685866132	worker nodes
0.7685626456	matrix product state
0.7685452114	pac bayesian bound
0.7684735065	regression analysis
0.7684705748	transfers knowledge
0.7684578709	minimum mean square error
0.7684396374	bit error rate
0.7684092300	partial least squares
0.7683546207	disease severity
0.7683421092	significantly improves
0.7683119230	frechet inception
0.7682894001	soft label
0.7682882838	prior beliefs
0.7682833707	shared information
0.7682757811	presence absence
0.7682624229	human interaction
0.7682176470	data structures
0.7682076750	additive regression trees
0.7681182265	provable robustness
0.7681110403	memory efficient
0.7681015826	maximization problem
0.7680948674	cryo em images
0.7680893701	ablation study
0.7680077620	mixed graphs
0.7679824837	interval estimation
0.7679547861	decision process
0.7679194085	partial orders
0.7678913058	newton methods
0.7678749689	subspace segmentation
0.7678724012	dynamic networks
0.7678703938	human motion
0.7678634506	tensor regression
0.7678547256	stochastic differential
0.7677854432	brain function
0.7677402797	counterfactual outcomes
0.7677367914	margin bounds
0.7677308914	byzantine robust
0.7677308238	decentralized optimization
0.7676922071	label correlations
0.7676375954	noisy speech
0.7676243216	simple regret
0.7676195485	linear approximation
0.7675878332	linear functions
0.7675133105	adversarial loss
0.7675109698	dynamic range
0.7675027053	frame level
0.7674988244	weighted svm
0.7674971298	event based
0.7674949269	gradient boosting decision tree
0.7674516894	traffic safety
0.7674515405	computational imaging
0.7674382493	question posed
0.7674288473	abstract representations
0.7673532698	limited resources
0.7673225218	distributed memory
0.7673204590	spatial correlation
0.7673105998	imputation methods
0.7673088892	binary matrices
0.7672945037	multi target regression
0.7672606099	deeper networks
0.7671807725	transcriptomic data
0.7671717293	question arises
0.7671628498	parameter transfer
0.7671402381	variational posteriors
0.7671389688	sufficient condition
0.7671291703	markov process
0.7670674130	privacy aware
0.7670613957	image features
0.7670467452	shown great promise
0.7670000170	dynamic time warping
0.7669773760	response variables
0.7669433315	computational demands
0.7669371675	fully connected networks
0.7669277408	conditional generative adversarial network
0.7669243622	comparison based
0.7669027171	computational effort
0.7668980378	convolution neural network
0.7668735314	architectural design
0.7668708183	tree based ensemble
0.7668609108	tail bound
0.7668606569	bethe approximation
0.7668284351	major contribution
0.7667888366	pair wise distances
0.7667502594	survival function
0.7667433344	health related
0.7666922731	elastic net penalty
0.7666904228	molecular simulations
0.7666782876	memory requirements
0.7666593530	algorithm selection
0.7666562132	distance functions
0.7666380805	sampling distribution
0.7665548685	multivariate data
0.7665426968	decision problems
0.7665368894	hindsight experience
0.7665297438	significance testing
0.7665104239	lstm model
0.7664823603	activation patterns
0.7664601906	transition model
0.7664559602	recently attracted
0.7663402984	poor scalability
0.7662899311	node degree
0.7662856310	smooth convex
0.7662799383	prevents overfitting
0.7662680710	similarity functions
0.7662552748	defense against adversarial attacks
0.7662231515	eigenvalue problems
0.7661770494	cox process
0.7661716796	empirical measures
0.7661588753	node feature
0.7661584878	quantization aware
0.7661308124	reward distributions
0.7661025404	historical data
0.7660455990	max flow
0.7660333051	data owners
0.7660309751	scalability issues
0.7660235489	robust classification
0.7660211423	empirical evaluations
0.7660157402	generalization guarantees
0.7659690713	named entity
0.7658884691	causal structure learning
0.7658691921	finite mixture
0.7658625695	graph similarity computation
0.7658501194	problem dependent
0.7658039432	model comparison
0.7657949785	feature subset
0.7657910642	tensor valued
0.7657643325	motion segmentation
0.7656885304	short range
0.7656095223	mcmc methods
0.7655820094	model based planning
0.7655657486	graph visualization
0.7655401119	empirical likelihood
0.7655164816	inverse covariance
0.7654461291	original images
0.7654415692	proximal gradient descent
0.7654215098	monitoring stations
0.7654153412	artificial agents
0.7653751696	finite sum minimization
0.7653615604	multi kernel
0.7653509191	dependence measures
0.7653167963	network architecture
0.7653165279	predictive model
0.7653108965	individual level causal
0.7652974327	causal influence
0.7652384089	greatly benefit
0.7652283178	membership privacy
0.7651370105	preliminary experiments
0.7651193349	joint sparsity
0.7650662801	image quality assessment
0.7650507543	linear predictor
0.7650193283	information theoretic lower bounds
0.7650053892	generated images
0.7649887162	similarity based
0.7649862238	significantly outperform
0.7649795706	multiplex network
0.7649685530	natural language inference
0.7649547954	model based rl
0.7649433163	low rank constraint
0.7649361518	binary relevance
0.7649301970	gaussian mechanism
0.7649157252	population based
0.7648058739	matrix approximation
0.7647909061	control policy
0.7647781332	pgd attack
0.7647613406	predictive performance
0.7646896819	kernel interpolation
0.7646282371	research area
0.7646276616	slightly modified
0.7646199606	random fourier feature
0.7645467166	point estimation
0.7645412038	alpha stable
0.7644865175	real robot
0.7644287162	linear regions
0.7643870396	text based games
0.7643355791	gpu implementation
0.7643248863	dirichlet prior
0.7643214098	purely data driven
0.7642296577	space complexity
0.7642277720	public dataset
0.7642124701	exact likelihood
0.7642077553	traffic participants
0.7641810414	siamese neural networks
0.7641803774	causal model
0.7641491949	small data sets
0.7641243580	linear constraints
0.7641140085	naturally handles
0.7641117992	toxicity prediction
0.7641113456	gradient tracking
0.7640920962	material properties
0.7640769770	previously suggested
0.7640499777	residual block
0.7640337596	attribute values
0.7640214804	stochastic linear bandits
0.7640036602	sparse rewards
0.7639554302	segmentation task
0.7639258948	provable convergence
0.7638577723	coefficient vector
0.7638535486	dynamic bayesian networks
0.7638290172	algorithmic stability
0.7638243088	predicting future
0.7637740616	margin condition
0.7637504437	temporal graphs
0.7637371819	semi supervised clustering
0.7637279231	linear units
0.7636879175	generating realistic
0.7636649281	message passing algorithms
0.7636563232	bag label
0.7636154077	gibbs posterior
0.7635661417	monge amp \ `
0.7635012747	image patch
0.7634893780	feature contributions
0.7634725936	treatment planning
0.7634672351	vanilla rnns
0.7633735265	variational distributions
0.7633311014	computational requirements
0.7633292414	significantly boosts
0.7632585160	set membership
0.7632513545	neural network classifiers
0.7632190653	selection criteria
0.7631654348	spatial patterns
0.7631503119	spatiotemporal data
0.7630989653	multi objective bayesian optimization
0.7630855870	human eye
0.7630844543	purely observational data
0.7630799290	semantic information
0.7630231625	statistically efficient
0.7629972167	communication delays
0.7629968189	recurrent autoencoder
0.7629738310	feature embedding
0.7629438931	manual tuning
0.7629411253	unsupervised domain
0.7629000164	competing approaches
0.7628877657	base classifier
0.7628415406	geo distributed
0.7628130556	gradient sparsification
0.7627786099	expectation maximization algorithm
0.7627119747	distribution estimation
0.7626866090	ground motion
0.7626629142	information loss
0.7626417427	user profiles
0.7625190288	temporal dynamics
0.7625119202	assortment optimization
0.7624883868	appealing properties
0.7624822874	gene association
0.7624781629	posterior predictive
0.7623927005	vertex classification
0.7623868319	quadratic loss
0.7623638111	continuous state space
0.7623448080	greatly improves
0.7623076823	class wise
0.7622566669	noise contrastive
0.7622380571	unseen environments
0.7622291370	fully understood
0.7621849581	adaptive learning rates
0.7621459142	system's dynamics
0.7621173112	node attribute
0.7620995907	finite sum problems
0.7620428795	norm regularized
0.7620287637	asynchronous sgd
0.7618886653	significantly reduces
0.7618803849	locomotion tasks
0.7618585314	characteristic functions
0.7618422413	toy dataset
0.7618360132	higher order derivatives
0.7617716461	orthogonal components
0.7617297006	normal approximation
0.7617260298	logic programming
0.7616886499	nucleotide polymorphisms
0.7616484714	dependent regret bounds
0.7616416947	conditional distribution
0.7616354209	selective attention
0.7616128939	learning disentangled
0.7616028317	neural network's
0.7615905396	riemannian metric
0.7615381131	heuristic search
0.7615345450	mathematical definition
0.7614844654	computational bottleneck
0.7614781097	mnist digit
0.7614485493	norm based
0.7614110200	sample compression
0.7613970437	sequence length
0.7613087065	nearest neighbor rule
0.7613076279	lipschitz bounds
0.7613028959	intermediate layer
0.7612869185	additive gaussian noise
0.7612643244	bit precision
0.7612250840	inference latency
0.7611974584	significant improvements
0.7611870544	reject inference
0.7611682798	attention network
0.7610863064	quantifying uncertainty
0.7610603540	quantum physics
0.7609403422	half precision
0.7608862136	deep learning architectures
0.7608117739	multiple domains
0.7607727120	adaptive step size
0.7607469930	statistical genetics
0.7607407312	aggregation functions
0.7607391869	significantly reduced
0.7606461665	label sets
0.7606147353	marginal map
0.7606004447	consistent estimators
0.7605806411	algorithms outperform
0.7605602992	unlabeled target domain
0.7605440005	locally linear embedding
0.7605279067	lipschitz condition
0.7605164843	series forecasting
0.7605076684	safe reinforcement learning
0.7604928066	imaginary parts
0.7604864318	environmental factors
0.7603996637	pairwise correlations
0.7603885612	screening tests
0.7603523678	quantum theory
0.7603103511	candidate set
0.7603024571	tedious task
0.7602863900	financial data
0.7602600065	synthetic dataset
0.7601388347	sparse additive
0.7601189904	critically important
0.7600274952	performance indicators
0.7600090949	counterfactual evaluation
0.7599069959	theoretical analysis
0.7598904826	geometric transformations
0.7598716836	bernoulli distribution
0.7598491975	informative features
0.7598485993	clean images
0.7598186209	separability assumption
0.7597980520	total variation regularization
0.7597933699	weak learner
0.7597801373	internal state
0.7597025033	prior distribution
0.7596673614	proportional hazard
0.7596273875	contributions include
0.7595819254	linear unit
0.7595302762	random gaussian
0.7595014710	structure aware
0.7594630571	benchmark datasets
0.7594567690	signal denoising
0.7593984141	automatic segmentation
0.7593816035	multiplicative update
0.7593809664	temporal context
0.7593706942	representational capacity
0.7593503953	low order
0.7592945685	scalable bayesian
0.7592877941	parameter selection
0.7592826223	newly designed
0.7592736248	experimental evaluations
0.7592486907	chain graph
0.7592377418	molecular optimization
0.7592108029	similarity index
0.7591921643	extremely challenging
0.7591587764	importance weights
0.7591340333	brain areas
0.7591182684	constant factor
0.7590864296	outlier factor
0.7590825861	product recommendation
0.7589976537	approximately sparse
0.7589858984	blood cells
0.7589667923	multi view clustering
0.7589639852	bayesian network structure learning
0.7589564188	competitive performances
0.7589496542	grid based
0.7589480665	network motifs
0.7589345578	classifier performance
0.7589211465	protein structure prediction
0.7588825604	large sample
0.7588656995	convex constraints
0.7588037202	intrinsic geometry
0.7587849474	data set
0.7587822143	control policies
0.7587727038	collapsed variational
0.7587664106	based bcis
0.7587464126	disease trajectories
0.7587019206	risk scoring
0.7586675030	vertically partitioned data
0.7586578459	single modality
0.7586026945	recent studies
0.7585845119	multinomial distribution
0.7585537540	norm penalty
0.7585453965	user identification
0.7585450858	multinomial mixture
0.7584908851	correntropy based
0.7584734521	neighborhood structure
0.7584688766	pixel values
0.7584683435	kernel functions
0.7584209876	kernel embedding
0.7584041118	prediction uncertainty
0.7583539232	single molecule
0.7583458108	significantly accelerates
0.7583337888	symbol detection
0.7583122566	scale poorly
0.7582956013	cooperative game
0.7582512025	application specific
0.7582443282	learner receives
0.7582248405	weaker assumption
0.7582191570	strongly convex functions
0.7582140929	large hadron collider
0.7581903837	graph filter
0.7581751742	small sample size
0.7581700575	teacher network
0.7581485568	treatment regime
0.7581263737	universal adversarial perturbations
0.7581223030	recently introduced
0.7581157491	model free rl
0.7580381958	ensemble model
0.7580073524	grid topology
0.7579681620	high energy
0.7579536857	reconstructed images
0.7579370248	data center
0.7579361561	sacrificing accuracy
0.7578862307	data imputation
0.7578723163	recent surge
0.7578632322	mixed type
0.7578431133	future observations
0.7577856758	joint probability
0.7577834375	rejection rate
0.7577667274	preserving privacy
0.7577569248	concave min max
0.7577097555	weight quantization
0.7577063521	data scarcity
0.7576977299	topological structures
0.7576635675	graph kernel
0.7576598023	ensemble classifiers
0.7576052531	substantially improve
0.7575873120	inverse dynamics
0.7575864802	feature level
0.7575734245	tensor pca
0.7575535743	turing machines
0.7575167601	decision policies
0.7575110708	target domains
0.7575095918	wireless channel
0.7574709196	detect anomalies
0.7574241490	convex optimization problems
0.7574222396	task driven
0.7574156244	semantic representations
0.7574092115	linear transformation
0.7573639507	traffic monitoring
0.7572822760	sampling algorithm
0.7572337734	expected regret
0.7572014839	variance estimates
0.7571757864	prediction horizon
0.7571516038	joint embedding
0.7571500967	highly competitive
0.7571462448	attention layers
0.7571424005	mini batch sgd
0.7571280754	explanation quality
0.7571020150	machine learning systems
0.7570867148	medical knowledge
0.7570770515	word segmentation
0.7570615196	fourier analysis
0.7570546590	fourier space
0.7570535595	dynamical model
0.7570223890	mathrm poly
0.7569292531	normalization layers
0.7568796340	raw data
0.7568790689	context specific
0.7568465704	adversarial losses
0.7568286263	optimal solutions
0.7567962596	modern neural networks
0.7567879102	temporal structure
0.7567874062	learning curve
0.7567678598	dense networks
0.7567114613	stochastic search
0.7567034273	empirical comparisons
0.7566859048	feature aggregation
0.7566765025	belief networks
0.7566721774	relu activation function
0.7566054140	hard label
0.7565794915	sequence alignment
0.7565368113	minimum variance
0.7565145984	high order tensors
0.7565048953	distribution alignment
0.7564849297	exact solutions
0.7564503487	student model
0.7564175093	sensory input
0.7564117516	reconstruction accuracy
0.7564055070	driving behavior
0.7563707112	past states
0.7563471934	geometric structures
0.7562555268	text corpus
0.7562489367	conditional gans
0.7562076856	research areas
0.7562052216	quasi newton methods
0.7561983636	reduced order modeling
0.7561781144	multi agent systems
0.7561697237	past observations
0.7561649513	bayesian additive regression
0.7561629752	graph nodes
0.7561150023	labeled nodes
0.7561106794	bayesian network structures
0.7561053646	hessian matrix
0.7560742678	student network
0.7560668030	high utility
0.7560460288	accuracy improvement
0.7559958743	action set
0.7559321706	ranking loss
0.7559046023	error feedback
0.7558417690	asymptotically consistent
0.7558371439	natural gradients
0.7558083619	connected devices
0.7557555028	highly expressive
0.7557475662	clean label
0.7557106944	high dimensional data
0.7556765530	compression scheme
0.7556571638	image representations
0.7556512533	bayesian hierarchical
0.7556354201	joint entropy
0.7556246388	upper level
0.7556084060	perturbed leader
0.7556047069	discrete variables
0.7555770499	unsupervised feature selection
0.7555440457	fewer iterations
0.7555261466	controlled experiments
0.7555111732	easily computable
0.7554863922	deep image prior
0.7554489752	wider networks
0.7554362582	empirical success
0.7554326835	fast adaptation
0.7554141783	faster rates
0.7553862525	multi gpu
0.7553701697	region based
0.7553620258	mild cognitive
0.7553579665	low resource language
0.7553451900	unit norm
0.7553113701	fast inference
0.7553105278	spatial dependencies
0.7552897015	power iterations
0.7552686034	significantly worse
0.7552457683	dual space
0.7552392780	stochastic gradient methods
0.7552277408	slow convergence
0.7552238657	multi user
0.7552203133	random utility
0.7552190258	confident predictions
0.7552173557	transformer model
0.7552044780	personalized ranking
0.7551831596	privacy preserving federated
0.7551686151	gaussian random fields
0.7551388977	geometric block model
0.7551163290	high dimensional sparse
0.7550964616	accelerated methods
0.7550789721	fast rates
0.7550715195	theoretical analyses
0.7550070143	latent class
0.7549482321	statistical analysis
0.7549384610	input output jacobian
0.7549307051	related problems
0.7549094683	markov chain monte carlo methods
0.7548771981	parallel transport
0.7548272637	brain imaging data
0.7548122815	continuous control tasks
0.7548000368	results imply
0.7547873005	source imaging
0.7547484236	algorithmic advances
0.7547018892	nonlinear filtering
0.7546969982	low dimensional representations
0.7546802582	manifold optimization
0.7546399350	thresholding bandit problem
0.7546306669	multidimensional data
0.7545942214	remains largely
0.7545838143	training procedure
0.7545417596	risk sensitive reinforcement
0.7544625351	wall street
0.7544116040	hopfield networks
0.7544018445	machine learning frameworks
0.7544018408	kernel density estimates
0.7543724970	gradient method
0.7543382447	entropy search
0.7543321933	boolean functions
0.7543027091	weak labels
0.7542770843	cd split
0.7542472859	cnn model
0.7542470857	micro level
0.7542191395	link functions
0.7542040676	optimization landscapes
0.7541762793	predictor variables
0.7541741951	multi block
0.7541266841	hybrid approach
0.7541222148	ai applications
0.7540955201	augmented data
0.7540794770	greatly improve
0.7540394174	human pose
0.7540076751	quantum monte carlo
0.7539888436	experimental evidence
0.7539806834	generative network
0.7539712562	clustering solutions
0.7539635023	linear projection
0.7539393173	pac bayesian theory
0.7539370426	error reduction
0.7539114083	learning progress
0.7538549033	sentence embedding
0.7538535901	adversarial defenses
0.7538288888	video streaming
0.7538069433	matrix variate gaussian process
0.7537249798	offline reinforcement learning
0.7537232898	invertible neural networks
0.7536972946	consumer behavior
0.7536919952	feature combinations
0.7536822105	variational bounds
0.7536678612	frequency cepstral coefficients
0.7535940339	concrete examples
0.7535694359	multi robot
0.7535409357	class boundaries
0.7535365876	source distribution
0.7535154661	memory unit
0.7534282440	lexicon based
0.7533922379	protein binding
0.7533870672	online convex
0.7533698949	predictive state representations
0.7533668459	hierarchical representations
0.7533501271	domain transfer
0.7533383603	equally important
0.7533270135	effect estimation
0.7532972586	precision matrix
0.7532309550	privacy constraints
0.7532085789	stochastic newton
0.7532043099	normal samples
0.7531971143	key building block
0.7531877986	random process
0.7531618129	single loop
0.7530074941	subspace estimation
0.7529956973	label pairs
0.7529878531	deep convolutional neural
0.7529663947	partial information
0.7529487227	industrial scale
0.7528848353	error detection
0.7528681784	euclidean embedding
0.7527683242	noise distributions
0.7527662300	particle optimization
0.7527495589	transfer entropy
0.7527160842	distance matrix
0.7526970650	mobile applications
0.7526656222	classifier's decision
0.7526538311	multivariate normal distribution
0.7526504810	attention module
0.7525715858	orthogonal group
0.7525473350	fundamental limitation
0.7525464358	distributional reinforcement learning
0.7525399847	robust training
0.7525053379	relu layers
0.7524693667	relation classification
0.7524471714	expected utility
0.7524176675	toy problems
0.7523717690	trainable parameters
0.7523194546	image enhancement
0.7522571362	user defined
0.7522133027	conditional likelihood
0.7522019824	heterogeneous graph
0.7521803023	diverse domains
0.7521791988	unseen test
0.7521593722	random measures
0.7521584186	white gaussian noise
0.7520906550	lstm fcn
0.7520478151	multiple source
0.7519891770	distributed machine learning
0.7519727478	hypothesis set
0.7519607127	multiple aspects
0.7519526561	adaptive gradient
0.7518811915	potential benefit
0.7518672205	information theoretically optimal
0.7518471899	statistically independent
0.7518346071	null distribution
0.7517802418	graph structured data
0.7517778736	mixture densities
0.7517739859	dictionary based
0.7517304780	mondrian process
0.7516970971	visual features
0.7516104554	accurate predictions
0.7516024937	stability analysis
0.7515851478	class distributions
0.7515608676	sars cov
0.7515495238	frequentist regret
0.7515217271	probability proportional
0.7515068501	jointly learns
0.7514857812	healthcare applications
0.7514714089	share similar
0.7514676687	network architectures
0.7514570128	rank function
0.7513909501	segment level
0.7513675041	probability density function
0.7513607229	computing power
0.7512888881	negative log
0.7512663989	primal dual coordinate
0.7512597882	regularized least squares
0.7512028038	extensive experiments
0.7511765851	parameter updates
0.7511663676	adaptive importance sampling
0.7511195036	randomized block coordinate
0.7511169583	expert policy
0.7511018004	galaxy images
0.7510737299	domain invariant features
0.7510253995	tractable inference
0.7510060363	adaptive regularization
0.7509758686	extracting features
0.7509570469	online influence maximization
0.7509231289	software testing
0.7509137825	selective sampling
0.7509114391	context information
0.7509018593	initialization schemes
0.7508858575	meta policy
0.7508219367	positive examples
0.7508059047	sparsity constraints
0.7506707524	nonnegative tensor
0.7506482199	raw eeg
0.7506108666	stochastic quasi newton
0.7506010536	rank constrained
0.7505876269	global optimisation
0.7505667729	hierarchical rl
0.7504689790	feedback alignment
0.7504314964	greatly reduce
0.7504105126	python library
0.7504084215	improving generalization
0.7504072364	substantially outperforms
0.7503554943	prohibitively large
0.7503473954	research directions
0.7503189523	integrated moving average
0.7503105657	distributed estimation
0.7503065577	larger datasets
0.7502246617	unconstrained optimization
0.7501611377	gender bias
0.7501425928	multiple tasks
0.7501315791	small molecules
0.7501137445	siamese network
0.7499649392	adaptive control
0.7499406488	negative examples
0.7499215887	image classification tasks
0.7499194198	distributional robustness
0.7499080525	newton type methods
0.7499077905	promising research directions
0.7498986503	word order
0.7498903936	proof technique
0.7498795853	exact sampling
0.7498634868	latent features
0.7498320579	test splits
0.7498300711	inception distance
0.7497928125	arbitrarily complex
0.7497574039	machine learning algorithms
0.7496798871	single image
0.7496527618	deep learning based
0.7496303775	computational limitations
0.7495860137	dependence plots
0.7495451257	training examples
0.7495229146	classification accuracy
0.7495144162	related tasks
0.7495080949	contrastive estimation
0.7494853704	supervised dimension reduction
0.7494722061	parallel sentences
0.7494714762	batch norm
0.7494606388	reverse kl
0.7494591962	posterior approximation
0.7494519880	human demonstrations
0.7494179988	previous studies
0.7493964330	intelligent systems
0.7493756621	network analysis
0.7493482968	simulation based
0.7493052907	properly chosen
0.7492532903	desired properties
0.7492468906	ordinal classification
0.7492247511	calibrated probabilities
0.7492185153	large data sets
0.7492001340	operating characteristics
0.7491883067	measurement vector
0.7491860483	masked conditional
0.7491833907	draw connections
0.7491498306	embedding vector
0.7491497667	set functions
0.7491318035	matrix rank
0.7490316216	data points
0.7490270150	classical machine learning
0.7490135116	patient outcomes
0.7490104838	areal data
0.7489509099	conditional average treatment
0.7489340288	perfect matching
0.7489010469	multi subject fmri
0.7488894033	reduction techniques
0.7488882252	multi agent deep reinforcement learning
0.7488522833	attack methods
0.7488522511	unknown distribution
0.7487761755	parameter vector
0.7487680235	weighted averaging
0.7487637486	spectral decomposition
0.7487318035	dimensional reduction
0.7487102163	logistic pca
0.7487073783	community structures
0.7486931978	action units
0.7486919968	risk seeking
0.7486861031	graph autoencoders
0.7486135089	latent topics
0.7485951234	latent dimensionality
0.7485949500	free text
0.7485505379	dynamic network
0.7485444916	control problems
0.7485186020	bayesian modeling
0.7484747799	long distance
0.7484664276	candidate labels
0.7484647338	multivariate time series
0.7484531195	theoretical convergence
0.7484193226	iterative methods
0.7483976174	concentration result
0.7483809018	column subset
0.7483806266	adversarial bandits
0.7483761419	neural processes
0.7483621582	production environment
0.7482869688	target functions
0.7482639886	spectral norms
0.7482600320	partial label learning
0.7482502101	weather prediction
0.7481724283	random geometric graphs
0.7480677868	ladder network
0.7480628847	dataset size
0.7480523323	pseudo inverse
0.7480315596	reconstruction methods
0.7480102210	quadratic approximation
0.7480054597	large numbers
0.7479957632	lower layers
0.7479873100	empirically observed
0.7479707762	invariance properties
0.7479499839	dramatically reduces
0.7479234426	vector representations
0.7478799468	field theory
0.7478787742	aggregated posterior
0.7478730341	optimal arm
0.7478416167	exemplar based
0.7478291514	attracted increasing attention
0.7478291514	gained increasing attention
0.7478280829	rnn based
0.7476959913	global sensitivity analysis
0.7476873545	fairness enhancing
0.7476645093	layered neural networks
0.7476096502	split point
0.7475982108	human expertise
0.7475920826	adversarial domain adaptation
0.7475497187	output distributions
0.7475090754	high dimensional regression
0.7473791918	observed variables
0.7473433436	contrastive representation learning
0.7473410720	human machine
0.7473248125	test instance
0.7472639420	highway networks
0.7472594002	block term
0.7472398698	depth estimation
0.7472285626	instance selection
0.7472173502	heteroscedastic regression
0.7471786480	uncertainty calibration
0.7471773914	optical coherence
0.7471673461	knowledge sharing
0.7471618678	asymptotic analysis
0.7471420918	gnn architecture
0.7471361446	adversarial network
0.7470983469	multiple speakers
0.7470964393	input dimensionality
0.7470834634	bayesian evidence
0.7470728391	markov state
0.7470401066	rare class
0.7470378284	root cause analysis
0.7470320402	sufficiently smooth
0.7470019231	utility function
0.7469244868	adversarial corruptions
0.7469188824	statistical rate
0.7468999860	substantially improved
0.7468674076	linear function
0.7468505973	dtw distance
0.7467976286	statistical properties
0.7467783608	big datasets
0.7467700048	oracle queries
0.7467462367	fisher score
0.7466803246	mortality rate
0.7466400004	statistical risk
0.7465969296	practical applications
0.7465898170	batch normalized
0.7465813146	agents learn
0.7465788269	main insight
0.7465755645	future research
0.7465685412	robust subspace tracking
0.7465062510	confounding bias
0.7464262324	low rank structure
0.7464228693	mri reconstruction
0.7463950730	self driving cars
0.7463917867	semi supervised classification
0.7463514267	human interpretable
0.7462886029	oracle property
0.7462535217	armed bandit problem
0.7462477460	target detection
0.7462289223	significant performance gains
0.7462234858	traffic conditions
0.7462127051	training samples
0.7461908697	dual formulation
0.7461269541	cifar10 dataset
0.7460854639	true label
0.7460786661	mixed data
0.7460784156	empirical risks
0.7460386323	parameter uncertainty
0.7460125704	public datasets
0.7460070859	large scale distributed
0.7459710662	computational tradeoffs
0.7459620963	entropy based
0.7459526963	corrupted data
0.7459492175	modal clustering
0.7459079446	deep autoencoder
0.7458473734	gaussian process prior
0.7458248985	theoretically analyze
0.7458181755	hand tuning
0.7458168674	input sequence
0.7458130763	emotion detection
0.7458013363	target variables
0.7457954713	linear classification
0.7457724131	interaction graph
0.7457314295	correlation matrix
0.7457192112	labeled dataset
0.7457135998	character based
0.7457130370	social network analysis
0.7456830058	human subject
0.7456650615	surprisingly effective
0.7456080238	privacy loss
0.7455567405	semi nonnegative matrix factorization
0.7454853674	minimax optimal regret
0.7454698575	single site
0.7454406887	substantially improves
0.7454124188	matrix sensing
0.7454103365	parameter estimates
0.7453642695	recent research
0.7453389724	uniform distribution
0.7452908405	experimental results
0.7452707988	control problem
0.7452662607	input variables
0.7452512789	smoothness assumptions
0.7452415807	class incremental
0.7452093340	bi objective
0.7451963296	neural network verification
0.7451883451	traffic signal
0.7451598254	computed efficiently
0.7451487279	noise vector
0.7451076507	sparse regularization
0.7450728781	selective classification
0.7450133168	artificial neuron
0.7449773065	single path
0.7449577982	main memory
0.7449311378	sheds light
0.7448649974	space partitioning
0.7448464529	independent components
0.7448340835	twitter data
0.7448244694	requires careful
0.7448211266	hidden factors
0.7447856251	recurrent layers
0.7447379927	numerical precision
0.7447343987	generated samples
0.7447026178	feature values
0.7447012226	directed edges
0.7447001380	step ahead forecasting
0.7446728148	adaptive stepsize
0.7446661607	confinement fusion
0.7445239908	statistically significant improvements
0.7445003043	convolution neural networks
0.7444814822	adverse effects
0.7444492674	spectral features
0.7444387750	adaptive methods
0.7443585644	artificial data
0.7443123901	background noise
0.7443055149	major limitations
0.7443012808	recent decades
0.7442972083	cluster ensemble
0.7442243513	online optimization
0.7442192463	truncated samples
0.7442023648	multi armed bandit problems
0.7442013939	covariance matrix adaptation
0.7441858896	testing error
0.7441668786	task similarity
0.7441633851	missing links
0.7441415226	fixed point iterations
0.7441202608	behaviour policy
0.7441135106	teacher model
0.7440415314	activation vectors
0.7440268209	multiple output
0.7439846935	target propagation
0.7438760786	human annotation
0.7438568776	hyperparameter choices
0.7437963168	multiple kernel
0.7437688327	past events
0.7437585971	high performing
0.7437579636	gradient computation
0.7437288636	matrix estimation
0.7437055427	power flow
0.7436948803	gp regression
0.7436930128	key observation
0.7436322458	capture long range dependencies
0.7436263637	additive white gaussian noise
0.7436215731	higher quality
0.7435954326	empirical loss
0.7435378513	ground set
0.7435245451	multi party computation
0.7435094618	hilbert schmidt independence
0.7434618718	protein structures
0.7434482197	forecasting competition
0.7434005795	delay aware
0.7433906156	pre computed
0.7433699307	multi attribute
0.7433628606	multilayer graph
0.7433589152	simulation runs
0.7433410521	considerable attention
0.7433227248	improper learning
0.7433098737	frequency components
0.7432373858	pac bayesian generalization
0.7432175907	unseen tasks
0.7431699744	user generated
0.7431671338	high power
0.7431633538	modular structure
0.7431270097	performance gains
0.7430086585	survival data
0.7429823303	empirical studies
0.7429405826	invertible flow
0.7429396039	previous tasks
0.7429334306	domain adaptive
0.7429073256	underdetermined linear
0.7428289028	regular intervals
0.7427324682	augmentation policies
0.7427190652	distributed learning
0.7427089173	significantly outperforming
0.7427088096	previously studied
0.7426816101	extracted features
0.7426715260	contrast enhanced
0.7426546397	low cost sensors
0.7426324309	unsupervised pre training
0.7425988582	efficiently solved
0.7425963075	modeling framework
0.7425912975	natural languages
0.7425465057	human operators
0.7425276985	hardware aware
0.7425068392	matrix profile
0.7424780249	testing accuracy
0.7424778611	temporal information
0.7424746362	layered neural network
0.7424573594	statistical consistency
0.7424425331	exponential weights
0.7424386163	energy function
0.7424009788	discrete optimization
0.7423899398	probability measure
0.7423621345	explainable machine learning
0.7423553934	computer aided diagnosis
0.7423523468	global information
0.7423127954	hyperparameter space
0.7422567226	geometric interpretation
0.7421997156	word similarity
0.7421907306	fairly general
0.7421742601	additive explanations
0.7421563368	deep feedforward
0.7421507090	resolution satellite
0.7420495015	physics informed neural network
0.7420490385	final solution
0.7419677623	model stealing
0.7419445805	eeg based
0.7419370657	significantly improve
0.7419091427	reference point
0.7418560678	pruning methods
0.7418548693	standard error
0.7418431865	numerical evidence
0.7418403470	research community
0.7418320440	learning agents
0.7418308421	higher order tensors
0.7417629556	pruned networks
0.7417483843	statistical parity
0.7417081015	optimization oracle
0.7416955019	log rank
0.7416536854	semi algebraic
0.7416359315	reliability analysis
0.7416221667	hebbian learning
0.7416114113	gradient based optimization
0.7415623948	test accuracy
0.7415414687	diffusion based
0.7415399257	quadratic penalty
0.7415146054	python implementation
0.7414749853	agent's behavior
0.7413941238	image annotation
0.7413614914	projection based
0.7413476141	require careful
0.7413124695	test cases
0.7413106785	point set
0.7413031631	saliency methods
0.7412897617	domain independent
0.7412861650	learned dictionary
0.7412809852	approximate solutions
0.7412807219	recent progress
0.7412717753	censored regression
0.7412676683	machine learning classifiers
0.7412433399	gpu based
0.7412370260	model based
0.7412258973	pre trained language
0.7411125334	uniform quantization
0.7410977354	graph bert
0.7410941328	fall short
0.7410816345	high variance
0.7410330648	high dimensional linear regression
0.7410323672	image datasets
0.7410055232	significant gains
0.7409825934	consensus based
0.7409648697	empirical process
0.7409195490	density matrix
0.7409126217	highly parallelizable
0.7409077062	health outcomes
0.7408774550	combinatorial structure
0.7408482070	operator valued
0.7408326866	label distributions
0.7408234331	policy updates
0.7408233550	empirical evaluation
0.7407181652	valuable information
0.7407166231	cross modality
0.7407081204	orthogonal projection
0.7406162041	recognition systems
0.7406022611	ensemble selection
0.7405805815	anomalous inputs
0.7404773199	acyclic graph
0.7404235001	graph attention
0.7403837181	pac bayesian analysis
0.7403471695	dramatically reduce
0.7403343939	target samples
0.7403299803	temporal networks
0.7403159803	human input
0.7402755018	low memory
0.7402665183	language translation
0.7402581272	spatial domain
0.7402530469	estimation procedure
0.7402308807	gene sets
0.7402201147	covariance estimator
0.7401836332	singular value decompositions
0.7401683092	quantum machine learning
0.7401652751	sample selection
0.7401393846	model robustness
0.7401392063	arbitrarily large
0.7400897833	concentration results
0.7400719367	information exchange
0.7400469113	significant speed ups
0.7400288398	tensor products
0.7399936880	simulated data
0.7399932892	kernel function
0.7399287646	dynamic graph
0.7398925363	satellite image
0.7398644985	uci data sets
0.7398623444	conditional gradient
0.7398488804	linear operators
0.7398144377	euclidean norm
0.7397625568	adversarial learning
0.7397488659	constraint set
0.7397237529	damage detection
0.7396536530	local neighborhoods
0.7396487076	memory cost
0.7396284319	ranking problems
0.7396050439	geometric deep learning
0.7395996919	convex set
0.7395873837	online recommendation
0.7395832255	based vad
0.7395495090	user privacy
0.7395259992	conditional generative adversarial networks
0.7395248183	physical layer
0.7394429753	saddle point optimization
0.7394034717	semantic space
0.7393550587	connectivity structure
0.7393370382	noise robust
0.7392944798	community membership
0.7392819806	object segmentation
0.7392633291	correct labels
0.7392470220	dp sgd
0.7392417558	target policy
0.7392121278	access patterns
0.7391913149	vision tasks
0.7391731235	accurately estimate
0.7391711959	long memory
0.7391521148	major obstacle
0.7391381722	safety critical domains
0.7391121073	multi point
0.7390912369	jointly learned
0.7390887593	minimum entropy
0.7390837244	input vectors
0.7389896998	ratio estimation
0.7389887940	tensor algebra
0.7389620939	reduced order
0.7389468068	minimax sense
0.7388584640	model explanation
0.7388332731	memory constraints
0.7388270007	expensive black box functions
0.7388244486	variational expectation maximization
0.7387900844	random samples
0.7387698213	conduct comprehensive experiments
0.7387479338	sparse gaussian
0.7387197222	operations research
0.7387150927	aggregation scheme
0.7386809561	human level
0.7386659648	semi nmf
0.7386617973	unlabeled nodes
0.7386474620	graph properties
0.7386415595	unbalanced data
0.7386179593	small batch
0.7385979228	binary matrix
0.7385771810	functional forms
0.7385655357	poisson regression
0.7385412411	kernel mean embeddings
0.7384996012	stochastic optimal control
0.7384562153	risk estimator
0.7384528319	cluster structure
0.7384047851	tumor samples
0.7383563722	temporal interaction
0.7383462050	bayesian updating
0.7383359304	compression techniques
0.7383276748	faster r cnn
0.7382971495	hierarchical reinforcement learning
0.7382723462	sampling algorithms
0.7382623565	performance guarantees
0.7382561288	shallow neural network
0.7382416565	malware samples
0.7381609292	python code
0.7380362277	detecting anomalies
0.7379700637	stochastic compositional
0.7379691848	query point
0.7379471172	synthetic likelihood
0.7379368146	semisupervised learning
0.7379131420	probabilistic pca
0.7379106664	conformal predictive systems
0.7379026124	independent component
0.7379006170	text embeddings
0.7378822771	proximal policy
0.7378596559	policy class
0.7377964261	neural message passing
0.7377189567	processing unit
0.7377165933	mdl based
0.7377072845	distributed representation
0.7377070429	medical center
0.7376943365	randomized algorithms
0.7376762545	calibration methods
0.7376701021	hard margin
0.7376379467	competing methods
0.7376364423	continuous normalizing flows
0.7376295318	optimal decisions
0.7376207931	additive error
0.7375705011	phenomenon occurs
0.7375151374	fundamental questions
0.7374988504	om method
0.7374585350	semi markov
0.7374353291	static analysis
0.7374353186	regularization strategies
0.7374270157	potential function
0.7374145426	linear ica
0.7373536501	root mean squared
0.7373394024	state representation
0.7373135587	statistically optimal
0.7372877127	ensemble based
0.7372851412	sparse solutions
0.7372389424	information geometric
0.7372080305	incorrect predictions
0.7371976795	learning paradigm
0.7371724839	tabular datasets
0.7371606187	reference distribution
0.7371373466	source dataset
0.7370282937	actor critic algorithms
0.7369616375	cyclical learning
0.7369148351	impressive results
0.7368832448	severely limited
0.7368770344	scan statistics
0.7368762849	marginal probabilities
0.7368509598	adversarial setting
0.7368449196	low distortion
0.7368445047	observation space
0.7368164646	task identity
0.7368033946	conduct extensive experiments
0.7367926092	evolutionary algorithm
0.7367683084	clustering result
0.7367539728	prior works
0.7367477668	inference attack
0.7367299808	simulation based inference
0.7367222204	analytic functions
0.7367152923	statistical power
0.7366974880	long short term memory networks
0.7366426453	recurrent architecture
0.7365062973	contaminated data
0.7364423518	composite convex
0.7364366099	prediction accuracy
0.7364337798	structure learning
0.7364312542	biological neural networks
0.7364112589	context vectors
0.7364053288	logistic model
0.7363856162	primary task
0.7362844781	robot control
0.7362647556	approximate nearest neighbor
0.7362285227	memory bandwidth
0.7361952959	source codes
0.7361297973	source localization
0.7360986274	hierarchical classification
0.7360881802	finite samples
0.7360514666	sentence similarity
0.7360429975	experimental protocol
0.7360163318	encoder network
0.7359836894	graph classification
0.7359736995	pairwise similarity
0.7359512171	offline policy
0.7359179233	discriminative learning
0.7359088422	limited data
0.7358517171	labeled images
0.7358083676	exponential loss
0.7358081823	nonlinear function approximation
0.7357929642	optimisation problems
0.7357782365	bradley terry model
0.7357633088	optimization error
0.7357605383	scale parameter
0.7356914751	rigorous evaluation
0.7356826893	clinical decision making
0.7356075862	proximal stochastic
0.7355409801	latent gaussian
0.7355112736	gaussian noises
0.7354977523	engineering design
0.7354580737	significantly reduce
0.7354034304	experimental validation
0.7353910040	squared distance
0.7353851093	multilayer graphs
0.7353718054	frequency domains
0.7353556696	agent's actions
0.7353521516	classification tasks
0.7353448845	sequence level
0.7353429656	collected data
0.7353032051	drawn independently
0.7353030034	relevant variables
0.7353011736	tree width
0.7352772752	causal graphs
0.7352462114	shape based
0.7352363518	memory saving
0.7352111277	deeper layers
0.7351615412	compression technique
0.7351581460	generative adversarial imitation
0.7351577424	wide neural networks
0.7351557647	network embeddings
0.7351443969	random perturbations
0.7351316277	causal knowledge
0.7351125162	compressive sampling
0.7351097456	graph node
0.7350783809	sparse codes
0.7350169514	probabilistic model
0.7349814975	largely determined
0.7349509676	high volume
0.7349509374	convex program
0.7349448753	uci repository
0.7349396976	forecasting accuracy
0.7349056498	lasso regression
0.7348870408	standard gp
0.7347969133	actor critic methods
0.7347481812	regularized estimation
0.7347413978	limited budget
0.7346672488	gradient estimates
0.7346396399	manufacturing process
0.7346261937	adversarial distortion
0.7346127302	robot learning
0.7345858547	sampled data
0.7345705122	topological information
0.7345527419	energy functions
0.7345525389	surface reconstruction
0.7345522430	hierarchical softmax
0.7344811356	single objective
0.7343956402	hidden variable
0.7343817867	compressed measurements
0.7343619244	spatial data
0.7343493398	surrogate based
0.7343441024	significantly improved
0.7342977626	latent tree
0.7342932757	domain adversarial
0.7342708224	training labels
0.7342442422	future events
0.7342045801	experimental evaluation demonstrates
0.7341787717	action values
0.7341588436	quadratic constraints
0.7341449529	bi level optimization
0.7341199602	exponentially growing
0.7340900602	small data regime
0.7340467284	alternating direction method of multipliers
0.7339925075	inherent uncertainty
0.7339922933	unifying framework
0.7339823508	risk measure
0.7339635428	previously proposed
0.7338991476	local linear
0.7338892180	quantitatively evaluate
0.7338425502	hard clustering
0.7337954271	detecting adversarial examples
0.7337855884	optimal scheduling
0.7337492535	validation error
0.7337430819	error variance
0.7336936910	human subjects
0.7336844440	color images
0.7336651641	diagnostic tool
0.7336404279	extensively explored
0.7336371060	environment dynamics
0.7336152021	similarity learning
0.7335991307	probably approximately correct
0.7335910277	statistical dependence
0.7335874208	overparametrized neural networks
0.7335826541	treatment regimes
0.7335519018	wasserstein metrics
0.7335406601	fully adaptive
0.7335297021	graph topologies
0.7335112615	optimization perspective
0.7334984390	recommendation accuracy
0.7334838366	label set
0.7334611926	descent directions
0.7334282488	type ii
0.7333806483	content information
0.7333677357	constant factor approximation
0.7332882031	iterative algorithms
0.7332875867	main steps
0.7332513025	materials design
0.7331880033	event sequence
0.7331105263	viterbi algorithm
0.7331023767	offline data
0.7330902740	tuning parameter
0.7330863279	fusion strategies
0.7330835494	unbiased gradient estimator
0.7330729236	effective exploration
0.7330196360	cost incurred
0.7329500793	global linear convergence
0.7329242849	fully unsupervised
0.7329216760	public benchmarks
0.7329052646	black box functions
0.7328765014	count based
0.7328612339	testing procedures
0.7327320202	numerical tests
0.7327244351	overlapping community
0.7327132278	semi implicit variational inference
0.7326931632	atari 2600 games
0.7326899876	textual content
0.7326231708	optimality conditions
0.7325920179	optimality criterion
0.7325788937	sparse approximations
0.7325403675	control tasks
0.7325312474	imbalanced data sets
0.7325007737	results suggest
0.7324678100	sigmoid activation
0.7324366848	pruned network
0.7324211824	extreme classification
0.7324155578	stochastic process
0.7323930209	correction term
0.7323887867	achieved remarkable
0.7323697485	significantly fewer
0.7322251368	knowledge acquired
0.7321839500	existing gnn
0.7321313058	ranked probability
0.7321185526	topology identification
0.7321150056	target network
0.7320587568	attractive properties
0.7320497190	powerful tools
0.7320234400	additive white
0.7320195620	unknown dynamics
0.7319954250	joint optimization
0.7319768404	sequential monte
0.7319621711	expensive black box
0.7319514806	embedded feature selection
0.7319510123	gradient langevin dynamics
0.7318995885	naturally represented
0.7318908933	feature learning
0.7318756197	correlation coefficients
0.7318624539	class probability
0.7318580016	equal size
0.7318551785	deep network
0.7318535247	bayesian inversion
0.7318494714	reward signal
0.7317719361	facial image
0.7317327793	multivariate analysis
0.7316804602	constrained optimization problems
0.7316799317	frequency principle
0.7316603275	fidelity term
0.7316218780	statistical optimality
0.7315737422	crucial issue
0.7315693899	graph regularization
0.7315554068	multiple choice
0.7315318290	regression setting
0.7314930756	interior point methods
0.7314106645	machine vision
0.7314008567	multi label text classification
0.7313878403	bidirectional long short term
0.7313785105	search direction
0.7313652478	node importance
0.7313574538	theoretical results
0.7313503524	existing works
0.7313373798	low dimensional subspaces
0.7313081753	distribution regression
0.7311567339	probit model
0.7311305365	nonparametric estimators
0.7310368693	nonparametric inference
0.7310362883	regret incurred
0.7309882967	feedback control
0.7309855117	strong evidence
0.7309512051	distributed stochastic gradient descent
0.7309494590	regression model
0.7309335135	synthetic examples
0.7309073666	ensemble classifier
0.7309036975	bootstrap method
0.7308906956	covariance matrix estimation
0.7308864066	resampling techniques
0.7308588339	mnl model
0.7308509490	self organizing maps
0.7308469152	buffet process
0.7308435454	test statistics
0.7308290389	detection task
0.7308180602	spectral graph clustering
0.7307747154	visual quality
0.7307343103	robotic tasks
0.7307168628	piecewise smooth
0.7307060384	area under curve
0.7306728534	coupled matrix
0.7306728446	arbitrarily small
0.7306627101	lower cost
0.7306597252	optimization criterion
0.7306461931	network flows
0.7304787794	network lasso
0.7304057406	prediction quality
0.7303860731	accurately detect
0.7303512108	selection rule
0.7303044935	theoretical result
0.7302902329	meta training
0.7302364588	error estimates
0.7301968935	medium size
0.7301921924	coordinate descent algorithm
0.7301808975	memory based
0.7301773199	clustering problems
0.7301734674	widely applied
0.7301430429	effective sample size
0.7301224964	test accuracies
0.7301120530	manual feature engineering
0.7301058662	remote sensing images
0.7300180190	substitute model
0.7300014310	cluster labels
0.7299810610	composite neural network
0.7299360964	existing bounds
0.7299172791	stochastic primal dual
0.7299090205	higher fidelity
0.7298900135	parallel implementation
0.7298702616	alzheimer's disease neuroimaging
0.7298609189	joint inference
0.7298576569	sensory data
0.7298527443	latent variable modeling
0.7298483753	long term dependency
0.7297927340	expected error
0.7297801554	object categories
0.7297778185	penalized estimators
0.7297552960	weakly correlated
0.7297378831	statistical accuracy
0.7297187275	binary data
0.7297063985	model based policy search
0.7297020740	proposal distribution
0.7296917550	real time bidding
0.7296099662	unlabeled dataset
0.7296098325	considerable success
0.7295959184	communication channel
0.7295652633	user specific
0.7295481179	previous results
0.7295121848	pre trained word embeddings
0.7294766378	distributed data
0.7294339872	group factor analysis
0.7294336483	hidden logistic process
0.7294174377	graph convolutional neural networks
0.7293800885	hardware design
0.7293659505	sparsity patterns
0.7293474950	conditional expectations
0.7293239566	split learning
0.7293079615	acceptance rate
0.7292915184	model distillation
0.7292848614	significantly boost
0.7292686430	photo realistic images
0.7292430326	group convolution
0.7292062585	lower dimensional subspace
0.7291703217	wave function
0.7291468782	high cardinality
0.7290940568	averaging schemes
0.7290751122	permutation matrices
0.7290712484	interacting agents
0.7290618798	rl algorithm
0.7290299297	subspace preserving
0.7290282642	image manipulation
0.7290273801	special attention
0.7290266159	agent based
0.7290150452	detection delay
0.7289949012	cancer drug
0.7289121421	parametric model
0.7288937095	data hungry
0.7288182189	scientific applications
0.7288101697	ml algorithms
0.7288064804	highly predictive
0.7287848157	graph structures
0.7287720014	rl algorithms
0.7287694956	training phase
0.7287528517	lazy training
0.7287520672	favorable properties
0.7287198109	mixture distribution
0.7287073037	clustering technique
0.7287060542	shrinkage estimator
0.7286835970	survival model
0.7286825454	directed graphical
0.7286621498	data integration
0.7285950655	potential games
0.7285854632	noiseless setting
0.7285578373	sparse principal
0.7285530871	cluster structures
0.7285202880	translation quality
0.7285108373	input perturbation
0.7284849553	cross network
0.7284769261	convergence result
0.7284394945	graph auto encoder
0.7284346145	empirical evaluation shows
0.7284263300	stock market prediction
0.7283411047	preprocessing steps
0.7282938821	function classes
0.7282768035	predictive accuracy
0.7282351065	current research
0.7282308020	multi phase
0.7282251951	sparse gaussian process
0.7282111319	significant performance improvements
0.7281911119	multi horizon
0.7281603817	small cell
0.7281474697	deterministic mdps
0.7281386345	singular value thresholding
0.7281224021	unseen nodes
0.7281070928	synthetic data generation
0.7280998875	oracle estimator
0.7280912841	censored data
0.7280189422	continuous speech recognition
0.7279960312	node pair
0.7279681106	memory network
0.7279402179	unique characteristics
0.7279193673	demonstrated impressive
0.7277913560	unlike previous
0.7277747895	positive class
0.7277668703	black box variational inference
0.7277560583	sparsity inducing regularization
0.7277527275	model choice
0.7276632137	weak classifiers
0.7276473486	result implies
0.7276214796	reparameterization gradient
0.7275936846	nonnegative rank
0.7275899496	new york city
0.7275449502	learning algorithms
0.7275413448	paper proposes
0.7275234289	computational benefits
0.7274779583	quantum state
0.7274582214	class dependent
0.7274514451	stochastic admm
0.7274505879	minimax estimation
0.7273880551	differentiable function
0.7273790554	base measure
0.7273719615	series data
0.7273696534	annotated data
0.7273540316	disease associations
0.7273512452	continuous optimization
0.7273488798	audio recording
0.7272863289	invariant features
0.7272366788	optimality gaps
0.7272172029	continuous relaxation
0.7271870772	similarity matrix
0.7271677657	convex objectives
0.7271605887	leave one out cross validation
0.7271449838	sample screening
0.7270509779	disease neuroimaging initiative
0.7270204189	diffusion tensor
0.7270111708	quantization scheme
0.7270083976	local geometry
0.7269748794	feedforward network
0.7269598273	static graphs
0.7269273794	neural circuits
0.7269197721	memory budget
0.7269185819	predictive performances
0.7269107675	input dimension
0.7269038501	regret guarantee
0.7268845557	positive definite kernel
0.7268239335	parallel training
0.7268162179	multi path
0.7268131030	neural embeddings
0.7267987646	excellent performance
0.7267954155	kidney injury
0.7267777745	theoretical considerations
0.7267317323	robotic systems
0.7267118968	dictionary matrix
0.7267106511	missing labels
0.7266765658	neural network compression
0.7266610919	probabilistic predictions
0.7266249345	clinical outcomes
0.7265873941	significant advantages
0.7265863029	logical constraints
0.7265447156	optimal rate
0.7265322545	neural network training
0.7264781327	higher accuracy
0.7264720288	variational distribution
0.7264632936	proximal algorithms
0.7264503901	sparse code
0.7264407427	density estimate
0.7264185240	maximum mutual information
0.7263899003	sparse group
0.7263783907	computational challenges
0.7263450493	random exploration
0.7262911006	parallel computation
0.7262713820	resulting estimators
0.7262598023	impressive performance
0.7261974452	online decision making
0.7261968720	scattering networks
0.7261910523	penalty method
0.7261766568	linear model
0.7261303565	improved generalization
0.7261302848	training scheme
0.7261159041	admm based
0.7260734826	online learning algorithms
0.7260169077	linear quadratic control
0.7260009908	discrete domains
0.7260007026	pre train
0.7259639715	significantly faster
0.7259619295	node representation
0.7259413883	deep neural network architectures
0.7259219499	implicit distributions
0.7258597565	regularization technique
0.7258484022	short sequences
0.7258375744	benchmark data sets
0.7258303655	energy distance
0.7257933622	gaussian process surrogate
0.7257915606	natural speech
0.7257699387	ranking function
0.7257664443	practical challenges
0.7256634142	markov logic networks
0.7256348583	directed exploration
0.7256340261	active subspaces
0.7256268403	validity indices
0.7256190979	increasingly deployed
0.7256011768	heterogeneous domain adaptation
0.7255855464	forecasting methods
0.7255693758	activation sparsity
0.7255664883	input layer
0.7255581791	poor generalization
0.7255533332	growing concern
0.7255305631	emotion classification
0.7255261704	promote sparsity
0.7255130617	labeling cost
0.7254914179	policy network
0.7254073718	backpropagation algorithm
0.7254057391	technical challenges
0.7254054292	feature transformations
0.7254030363	low dimensional subspace
0.7253943808	online adaptation
0.7253800032	sequence classification
0.7253507843	source task
0.7253183695	nearby points
0.7252511157	low regret
0.7252439263	proximal gradient methods
0.7252423644	rahimi and recht
0.7251611971	generative classifier
0.7250319908	memory networks
0.7250108385	convex optimisation
0.7249901591	machine learning techniques
0.7249815389	kernel learning
0.7249680462	error analysis
0.7249622209	locally interpretable
0.7248807349	clustering quality
0.7248662775	median regression
0.7248513030	training gans
0.7248248551	decoder network
0.7248023519	nested cross validation
0.7247533075	data splitting
0.7247446849	accuracy loss
0.7247173129	resolution limit
0.7247035852	link function
0.7246600200	adaptive attacks
0.7246530973	feature hashing
0.7246457139	speech signal
0.7246116400	adversarial transferability
0.7245849504	column sampling
0.7245466583	fourier features
0.7245189473	invariance property
0.7245116728	information criteria
0.7245023667	block separable
0.7244560169	stochastic momentum methods
0.7243997986	scientific knowledge
0.7243655512	extremely sparse
0.7243574073	closed form solution
0.7243412399	attention networks
0.7243248069	source condition
0.7243118339	k nearest neighbour
0.7242863685	variational message passing
0.7242674269	variance reduced stochastic gradient
0.7242621435	low dimensional embedding
0.7242447129	proposal distributions
0.7241394498	images acquired
0.7241310415	comprehensive experiments
0.7241231394	cross correlations
0.7241090402	neighborhood graph
0.7240809526	mcmc samplers
0.7240789253	recent advancements
0.7240644545	achieved great success
0.7240619384	matching problem
0.7240240114	high risk
0.7240203151	data imbalance
0.7240016429	sales data
0.7239933317	application domains
0.7239831769	demand forecasts
0.7239763158	ordinal data
0.7239733913	test examples
0.7239445423	research fields
0.7239431669	wrong predictions
0.7238301074	upper layer
0.7238269831	clustering algorithm
0.7238186892	order wise
0.7238169008	effective dimension
0.7238130425	matrix norm
0.7237963235	sparse gp
0.7237942939	control flow
0.7237927921	output units
0.7237486108	function estimation
0.7237226479	fmri data
0.7236567237	desirable property
0.7236396057	combinatorial problem
0.7236326010	proof techniques
0.7236308513	intra cluster
0.7236049744	bit floating point
0.7235347570	sequence modelling
0.7235323731	risk estimation
0.7235268678	network design
0.7234694227	text classification tasks
0.7234215998	unsupervised disentanglement
0.7233166254	programmable gate
0.7232839258	data poisoning attacks
0.7232559257	sequence based
0.7232227572	sparse logistic regression
0.7231896134	capacity control
0.7231521457	general sum
0.7231116457	quantization error
0.7230967741	human computer interaction
0.7230915757	highly sparse
0.7230408843	inverse classification
0.7230206587	robotic control
0.7229870250	empirically validate
0.7229609757	numerical studies
0.7229604505	deep convolutional neural network
0.7229509369	combinatorial multi armed
0.7228851294	tight bounds
0.7228420695	generalized additive model
0.7228382718	subject independent
0.7227735947	topic word
0.7227713056	identification problem
0.7227506012	undirected graphical
0.7227299357	degree distribution
0.7227160340	multi marginal
0.7226016765	efficient optimization
0.7226006617	probabilistic logic
0.7225820117	entity recognition
0.7225804864	domain invariant representation
0.7225796810	environmental conditions
0.7225606226	langevin mcmc
0.7225083754	safety validation
0.7225073689	propagate uncertainty
0.7224512109	classification trees
0.7223386760	communication protocol
0.7223351676	classification algorithms
0.7222922835	text analysis
0.7222314123	matrix entries
0.7221979160	functional form
0.7221739668	inherent limitations
0.7221258230	adaptive filters
0.7221123173	correct class
0.7220516013	optimal scaling
0.7220472377	small datasets
0.7220445576	traffic scenarios
0.7219778518	additional assumptions
0.7219569844	gaussian markov random fields
0.7219370322	mild regularity
0.7219209892	design space
0.7218821933	added noise
0.7218813983	interval based
0.7218757236	private erm
0.7218736273	human knowledge
0.7218649997	graphical structure
0.7217988169	superior performance
0.7217951383	unseen data
0.7217806311	high dimensional settings
0.7217686424	pruning method
0.7217671342	complexity reduction
0.7217592882	feature set
0.7217567318	privacy utility
0.7217504520	memory efficiency
0.7217475878	dual tree
0.7217437451	kernel selection
0.7217372876	mixed strategy
0.7217262533	informative prior
0.7217150628	language identification
0.7216575608	optimization algorithm
0.7216508368	extensive numerical experiments
0.7215692060	individual survival
0.7215339571	neural network based
0.7215319383	primary goal
0.7214880916	error incurred
0.7214729213	nas methods
0.7214618420	barrier functions
0.7213958058	theoretically guaranteed
0.7213648885	main results
0.7213321622	early stages
0.7212070070	commonly employed
0.7210538769	billion scale
0.7210169046	inference engine
0.7210140610	complete graph
0.7207938671	distance function
0.7207928692	covariate space
0.7207649665	language understanding tasks
0.7206999939	independent and identically distributed
0.7206165969	paper discusses
0.7205835201	online boosting
0.7205642902	pairwise relationships
0.7205606957	input dimensions
0.7205488833	design points
0.7205421044	noise rate
0.7205207783	sparse precision matrix
0.7205186657	neural signals
0.7204105845	dependent variable
0.7204057953	feature elimination
0.7204043696	data privacy
0.7203832845	previously learned
0.7203714565	privacy cost
0.7203529575	unseen class
0.7203521796	number theory
0.7203241427	improving performance
0.7203098354	communication networks
0.7203063876	improving accuracy
0.7202945406	electronic medical
0.7202482744	redundant information
0.7202267124	pde constrained
0.7202082539	single point
0.7201827106	automatically tune
0.7201741162	self organizing map
0.7201396839	quantitative evaluation
0.7201393121	sparse gaussian processes
0.7201317913	asymptotic results
0.7201170486	sensing matrix
0.7200051416	average loss
0.7199518802	covariance kernels
0.7199426416	process monitoring
0.7199354153	raw images
0.7199304566	target class
0.7198523741	encouraging results
0.7197909782	approximation factor
0.7197714355	efficiently computed
0.7197588779	multiple objects
0.7197531481	traffic data
0.7196647942	compression methods
0.7196466693	embedding dimension
0.7196408513	linear interpolation
0.7196390121	extra computational cost
0.7196287747	target shift
0.7196207084	temporal patterns
0.7194798839	gaussian smoothing
0.7194341341	mujoco environments
0.7194308057	recent advance
0.7194189556	sign consistency
0.7194061304	bounded variation
0.7194028036	successfully applied
0.7193717604	data types
0.7193605727	real data
0.7192969256	complex network
0.7192968561	spatial spectral
0.7192508072	transformer networks
0.7192359011	imagenet dataset
0.7192269786	sparse subspace
0.7192069956	text to speech synthesis
0.7192051961	test instances
0.7191332395	linear layer
0.7191034615	dynamics model
0.7190766507	drastically reducing
0.7190675255	weight distribution
0.7190606513	climate variables
0.7190496408	important features
0.7190482928	game theoretical
0.7190256739	base distribution
0.7189691793	compressed representation
0.7188582606	structured matrix
0.7188494596	cluster membership
0.7188301011	common corruptions
0.7188174210	gradient sign method
0.7188118339	census data
0.7187484520	significant improvement
0.7187442699	calibrated uncertainty estimates
0.7186334824	multi omics
0.7186252425	pac bayes bound
0.7186155656	diffusion coefficient
0.7186144471	data association
0.7185903966	policy gradient algorithms
0.7185880147	feature subset selection
0.7185857068	remains open
0.7185761413	stationary solution
0.7185495336	heterogeneous graphs
0.7185292206	sparsity level
0.7185172873	unlabeled instances
0.7184878143	batch reinforcement learning
0.7184569075	extensive empirical evaluation
0.7184442260	entropy rate
0.7184383015	significantly higher
0.7184339675	recommendation algorithms
0.7183735475	gaussian prior
0.7183602386	aggregated data
0.7183103616	design principles
0.7182982805	sequential learning
0.7182871890	gradient estimate
0.7182755304	prediction task
0.7182684426	higher layers
0.7181970450	bounded degree
0.7181741976	continuous actions
0.7181395722	expert users
0.7181234897	attention weights
0.7180253278	csi based
0.7179310353	small molecule
0.7179105442	bayesian linear regression
0.7178918457	basic idea
0.7178842321	greatly improved
0.7178626720	cross product
0.7178176611	functional neuroimaging
0.7177919772	post selection
0.7177592620	tight lower bounds
0.7177497768	policy space
0.7176560278	low confidence
0.7176311495	subspace identification
0.7176051066	ancestral sampling
0.7176000914	slow mixing
0.7175770445	frank wolfe algorithm
0.7175617665	uncertainty reduction
0.7175099860	avoid overfitting
0.7174854021	pattern analysis
0.7174853642	supervised classification tasks
0.7174572154	lipschitz functions
0.7174345393	view specific
0.7174250189	daily basis
0.7173815675	text representation
0.7173739958	hypergraph laplacian
0.7173693417	embedding layer
0.7173555647	spike and slab priors
0.7173426266	decision making problems
0.7173209979	minimum spanning
0.7173075824	sampling scheme
0.7172643710	low dimensional space
0.7172633844	theoretical contributions
0.7172431340	network intrusion detection
0.7172284209	world model
0.7172075660	coding scheme
0.7172043484	feature scaling
0.7172025422	conditional generative model
0.7171823828	unseen domains
0.7171468946	gauss newton method
0.7170825381	variational lower bound
0.7170184298	evaluation measures
0.7169889546	patient level
0.7169645717	computing nodes
0.7169402801	multi factor
0.7169372753	visualization techniques
0.7169264161	constrained bayesian optimization
0.7169045884	neural autoregressive
0.7168960014	balanced accuracy
0.7168672541	concept class
0.7168573523	clean examples
0.7168475671	peer to peer
0.7167544303	massive datasets
0.7167190125	convex function
0.7167126188	laplacian matrices
0.7167070569	causal parameters
0.7166402355	lstm network
0.7164096852	binary relations
0.7163953000	daily living
0.7163875634	user representations
0.7163475650	dropout rate
0.7163242366	noisy samples
0.7163208943	multi instance learning
0.7163113160	unsupervised pretraining
0.7163090838	transductive inference
0.7162682942	benchmark task
0.7162161959	ood inputs
0.7162016706	large networks
0.7161674048	meta model
0.7161644110	multiple kernels
0.7161405073	anatomical structures
0.7161106789	similarity graph
0.7160913293	relational information
0.7160850734	gaussian random
0.7160799894	audio samples
0.7160729783	policy learning
0.7159730133	class conditional distributions
0.7159597595	information source
0.7159433518	training instances
0.7159223441	pool based
0.7159170786	high frequency components
0.7158546406	sparsity assumptions
0.7158520134	density functions
0.7158422551	shared task
0.7158365150	surrounding environment
0.7158279057	hard instances
0.7158276186	main result shows
0.7157716165	finite length
0.7157540783	semi blind
0.7157209590	environmental dynamics
0.7156542217	approximately correct
0.7156358551	initial state
0.7155922092	cancer type
0.7155865893	large datasets
0.7155863715	statistical relational
0.7155725805	dense layers
0.7155194989	frequently encountered
0.7154835597	visual tracking
0.7154596079	evolutionary clustering
0.7154553596	clear advantages
0.7154546900	inverse optimization
0.7154472477	locally weighted
0.7153940215	point estimates
0.7153569514	weighted graphs
0.7153529322	semi synthetic
0.7153388424	input variable
0.7153287026	training times
0.7152766567	sequential prediction
0.7152681364	research challenges
0.7152464096	achieved impressive
0.7152456125	stochastic multi armed bandit
0.7152427875	overparameterized neural
0.7152385180	exploration phase
0.7152321916	nonlinear kernels
0.7151570030	evolving networks
0.7151542527	arbitrary length
0.7151348845	structured objects
0.7150518533	desired output
0.7149839474	academic research
0.7149475059	dynamic topic
0.7149316027	edge nodes
0.7149205516	final decision
0.7148944146	user ratings
0.7148902428	data manifold
0.7148231931	theory guided
0.7148049246	neural network pruning
0.7148001481	random dot product
0.7147683774	visual field
0.7147466375	research direction
0.7147255780	clustering ensemble
0.7146611661	gradient based attacks
0.7146372393	set size
0.7146102454	network depth
0.7146095170	future tasks
0.7146032732	user studies
0.7145881598	single output
0.7145863382	wind power prediction
0.7145833849	oracle efficient
0.7145685833	poor sample efficiency
0.7145653022	metric entropy
0.7145504595	generalized canonical correlation analysis
0.7145458219	face image
0.7145355461	genome wide association
0.7145051500	output spaces
0.7144945655	feature based
0.7144723482	accuracy tradeoff
0.7144372779	control suite
0.7144150110	algorithm outperforms
0.7143815219	episodic control
0.7143634056	gradient norms
0.7143412242	research topic
0.7143100103	multiple classifiers
0.7142868229	bayesian prior
0.7142810568	excellent results
0.7142405498	tensor data
0.7142166152	object classes
0.7142095217	tighter bound
0.7141983917	attack success
0.7141925956	final model
0.7141398750	arm identification
0.7140892148	bayesian neural
0.7140530573	shared parameters
0.7139980221	low rank component
0.7139851502	raw input
0.7139605026	penalty terms
0.7139467374	pac style
0.7138498793	online gradient descent
0.7138416198	pruning techniques
0.7138334472	gradient boosted decision
0.7138019560	detection rate
0.7137980688	bayesian interpretation
0.7137760714	observation noise
0.7137691364	bayesian methods
0.7137389242	ood data
0.7137304560	machine learning applications
0.7137223007	dimensional vectors
0.7137063152	selected variables
0.7136413188	software defined
0.7136260094	aspect based
0.7136213222	kernel space
0.7135757685	discrete continuous
0.7135479575	fake samples
0.7135479252	public data
0.7135388884	goal conditioned policy
0.7135368575	recurrent architectures
0.7135327288	simultaneous inference
0.7135277594	dsos and sdsos
0.7135180977	vector quantized
0.7134966312	initial point
0.7134750848	extreme value theory
0.7134540864	sparse phase retrieval
0.7134494365	human lives
0.7134185226	bert based
0.7134065172	majority class
0.7134064980	dimensional manifold
0.7134028166	causal analysis
0.7133655243	parametric form
0.7133144347	random processes
0.7133091593	scaling parameter
0.7133000117	massive data sets
0.7132908898	training stage
0.7132701032	similarity score
0.7132487955	spectral signature
0.7132285515	software implementation
0.7131770258	binary codes
0.7131414834	meaningful clusters
0.7131259202	real traffic
0.7130671062	multi label learning
0.7130446875	uniform prior
0.7130276860	clean samples
0.7130034677	labeled training data
0.7129994727	fast computation
0.7129163848	hidden semi markov model
0.7129089888	user embeddings
0.7128926434	standard gan
0.7128745139	earlier works
0.7128534218	defense strategy
0.7127871621	interventional data
0.7127051623	supervised classifier
0.7126684315	svm based
0.7126450798	sample generation
0.7126190807	ranking problem
0.7126184997	human annotated
0.7126042587	transformer network
0.7125719105	computationally attractive
0.7125507412	statistical machine learning
0.7125455456	hierarchical structures
0.7125404801	challenges faced
0.7125359057	analysis reveals
0.7125225460	quadratic discriminant
0.7125145133	local estimates
0.7125000932	optimal classifier
0.7124958451	level abstractions
0.7124513666	dependent noise
0.7124311808	larger scale
0.7124238700	neuronal networks
0.7124077690	methods outperform
0.7123809782	correlated features
0.7123776259	target classes
0.7123753862	dropout training
0.7123680793	highly incomplete
0.7123660408	million data points
0.7123513437	mutual independence
0.7123481730	estimation bias
0.7123380898	consistency results
0.7122967209	contemporary machine learning
0.7122575440	inverse covariance matrix
0.7122316238	human annotator
0.7121913984	smooth nonconvex
0.7121217329	convolutional dictionary learning
0.7121119989	cancer cell
0.7120859342	semantic features
0.7119531043	limit theorem
0.7119406242	knowledge representation
0.7118590387	real images
0.7118485025	deep features
0.7118395297	covid 19 pandemic
0.7118277145	naturally arise
0.7117520339	high dimensional space
0.7117426927	accurately predicting
0.7117154526	angle based
0.7116877635	click through rate prediction
0.7116795317	learning dynamics
0.7116544698	smoothness conditions
0.7116138475	sampling efficiency
0.7115989657	variational approaches
0.7115930573	geometric analysis
0.7115876796	straight through estimator
0.7114909793	expected rewards
0.7114846184	affine transformations
0.7114654735	evaluation shows
0.7114104324	kernel bayes
0.7113803584	contextual factors
0.7113583439	moment based
0.7112992937	web applications
0.7112759687	relation prediction
0.7112456204	natural phenomena
0.7111728560	fully distributed
0.7111557507	recommendation tasks
0.7111189224	structural health
0.7110899769	shared memory
0.7110244707	dynamic environments
0.7110142853	reweighted least squares
0.7109535461	base network
0.7109125398	variance decomposition
0.7109118917	combinatorial nature
0.7108999316	episodic reinforcement
0.7108937117	stability guarantees
0.7108707908	major challenges
0.7108644352	coupling matrix
0.7108532763	provably recover
0.7108465931	sparse reconstruction
0.7108289255	unlabeled test
0.7108072976	deep belief
0.7107921501	dimensional euclidean space
0.7107660046	gnn based
0.7107462561	perform similarly
0.7107451912	convolutional recurrent neural network
0.7107334723	state action space
0.7107118783	significantly outperformed
0.7106991481	text descriptions
0.7106916827	selection strategies
0.7106495109	empirically verified
0.7106302254	approximation guarantees
0.7106295969	reliably detect
0.7105487542	continuous random variables
0.7105000105	compositional structure
0.7104970832	shrinkage thresholding
0.7104600627	model checking
0.7104431436	duality theory
0.7104413021	stochastic game
0.7104394075	total variance
0.7104084252	speech quality
0.7103860953	remains challenging
0.7103835202	meaningful representations
0.7103700971	thresholding algorithm
0.7103489800	model complexity
0.7103168638	discriminative classifier
0.7103119527	adaptive submodularity
0.7103092637	gp inference
0.7102744306	human expert
0.7102504313	graph neural
0.7102443813	meta algorithm
0.7102348766	embedding methods
0.7102006849	cross covariance
0.7101213601	mode estimation
0.7100817398	recurrent attention
0.7099952789	dynamic selection
0.7099913698	min max game
0.7099910218	dual stage
0.7099728185	practical implications
0.7099683499	shuffled model
0.7099512205	bootstrap procedure
0.7099469440	negative values
0.7099182885	label vectors
0.7098111226	engineering applications
0.7096420893	gradient based meta learning
0.7096223893	transformed input
0.7096171865	language recognition
0.7096085629	generative autoencoders
0.7095875017	numerical methods
0.7095787865	limit point
0.7095012137	asymptotically unbiased
0.7094992950	weight parameters
0.7094732122	cognitive tasks
0.7094506377	imbalanced class
0.7094119928	word translation
0.7094008040	cox proportional hazards model
0.7093936398	stable prediction
0.7093478132	increasingly complex
0.7093434598	function class
0.7093052639	pros and cons
0.7092652692	alternating gradient descent
0.7092121434	structural features
0.7092100962	semi automatic
0.7091901374	experimental designs
0.7091513137	optimistic algorithms
0.7091475988	size increases
0.7090837261	protected class
0.7090655917	low dimension
0.7090619740	correlation based
0.7090585003	transformation invariant
0.7090227688	manifold alignment
0.7090192545	fully convolutional neural network
0.7090051075	regret upper bounds
0.7089233375	engineered features
0.7089180336	channel model
0.7089138950	unsupervised manner
0.7088911690	pixel based
0.7088752460	modeling approach
0.7088585083	generating synthetic
0.7088123282	key points
0.7087532079	combining multiple
0.7087399180	corrupted images
0.7087277138	stochastic proximal gradient
0.7087081730	regret lower bounds
0.7086289046	ml based
0.7085892912	sliced inverse
0.7085750988	event prediction
0.7085750098	differentiable forest
0.7085338134	outstanding performance
0.7085321115	recovery problem
0.7085167926	generating adversarial
0.7084868233	sampling method
0.7084621061	short period
0.7084340411	training strategy
0.7084246911	functional brain
0.7084181820	evidence suggesting
0.7083706051	sampling rate
0.7083061148	health record
0.7082815792	training dynamics
0.7082776902	local coordinate
0.7081735584	heterogeneous information network
0.7081425955	computational gains
0.7081136093	divergence based
0.7081071320	highest accuracy
0.7080933995	dependent data
0.7080731255	rapidly increasing
0.7080615867	zeroth order stochastic
0.7080601131	global explanations
0.7080392279	convergence issues
0.7080364418	affine subspace
0.7079930873	features extracted
0.7079686447	model size reduction
0.7079353697	model mismatch
0.7079290990	generated text
0.7078837625	factors affecting
0.7078817828	training objective
0.7078602424	sample points
0.7078162799	low variance gradient
0.7078059723	biological processes
0.7077892788	convex losses
0.7077753623	rank selection
0.7077320880	localization accuracy
0.7077038229	regression tasks
0.7076592284	discrete distribution
0.7076468482	spectral estimation
0.7076454226	target variable
0.7075936607	prediction accuracies
0.7075641739	predicted label
0.7074759063	static regret
0.7074755354	point estimate
0.7074528412	drastically reduces
0.7074505161	frame rate
0.7074249359	dual view
0.7074232519	real world data sets
0.7074123631	statistical error
0.7073801843	multinomial distributions
0.7073633908	heuristic algorithms
0.7073365877	data mining techniques
0.7073279632	encoder decoder network
0.7073117281	ml pipelines
0.7073016244	sampling error
0.7072803915	salesman problem
0.7072692753	optimization problem
0.7072231154	unique properties
0.7071834431	sampled independently
0.7071680452	cancer detection
0.7071605752	survival times
0.7071399578	source identification
0.7071335845	multiple times
0.7071256830	domain discrepancy
0.7070843979	incremental fashion
0.7070720388	bounded support
0.7070525629	spike based
0.7069174093	convex sets
0.7069146253	feed forward neural
0.7069086009	recent breakthroughs
0.7068988169	promising results
0.7068892823	feature embeddings
0.7068559143	achieves comparable
0.7068479785	population level
0.7068464735	general convex
0.7068040863	hardware efficiency
0.7067999012	healthcare data
0.7067871276	frequent patterns
0.7067784010	regularized optimal transport
0.7067259200	text classifier
0.7067069255	vast literature
0.7067024598	significant performance gain
0.7066033591	bert model
0.7065777431	weak convergence
0.7065448317	data subsampling
0.7065297935	reconstruction problem
0.7065269549	prediction horizons
0.7064959812	pareto optimal solutions
0.7064674355	learned knowledge
0.7064531402	video sequence
0.7064487894	problem instance
0.7064370775	lower accuracy
0.7064366853	robust aggregation
0.7064058201	sparse binary
0.7063440666	small world
0.7063251115	coherent structures
0.7063074978	synthetic control
0.7062860857	machine learners
0.7062522289	efficient online
0.7062439102	functional gradient
0.7062336248	major issues
0.7062306003	inference problems
0.7061855080	high cost
0.7061587438	anomaly scoring
0.7061467737	abstract syntax
0.7061209624	privacy attacks
0.7061194309	target density
0.7060901512	expression levels
0.7060890820	data annotation
0.7060701233	memory storage
0.7059752431	uncertainty information
0.7059681609	feature screening
0.7059531733	plug and play
0.7059418556	k nearest neighbors
0.7058971201	high scalability
0.7058941364	mab problem
0.7058910927	fast approximate
0.7058841626	limit points
0.7058795557	dna methylation data
0.7058674459	clustering method
0.7058631858	audio generation
0.7058501913	temporal correlation
0.7058388736	fairness measures
0.7058378882	low quality
0.7058305772	small perturbations
0.7058301478	differ significantly
0.7057810937	potentially infinite
0.7057145976	variational parameters
0.7056878961	conditional variational autoencoder
0.7056631978	tensor svd
0.7056414962	finite size
0.7056313679	web application
0.7056291225	biomedical datasets
0.7056186472	correlated topic
0.7056148683	single fidelity
0.7056074907	sensor network
0.7055892376	approximation theory
0.7055866128	pairwise relations
0.7055712659	overlapping clustering
0.7055615991	projected space
0.7055494158	computational guarantees
0.7055161103	navigation task
0.7055108075	deep representations
0.7055062622	sequence data
0.7055051080	categorical cross entropy
0.7054172669	multi variable
0.7053915456	threat detection
0.7053830641	generative networks
0.7053799905	exploding gradient problem
0.7053211540	subjective evaluation
0.7052838498	traffic flow prediction
0.7052657259	source classifier
0.7052639171	offline meta
0.7052586400	positive labels
0.7052326967	recommendation task
0.7051979100	sparse networks
0.7051697980	large variance
0.7051254079	optimal strategies
0.7051236606	noise distribution
0.7051199574	moving object
0.7051168862	discrete latent variables
0.7050957853	linear program
0.7050934749	experimental comparisons
0.7050871055	online prediction
0.7050779429	improved bounds
0.7050567425	lstm cells
0.7050231784	distributed systems
0.7050217222	human effort
0.7050119296	relevant dimensions
0.7050094512	genetic effects
0.7049874112	meta analysis
0.7049355327	modern deep learning
0.7049287546	map estimation
0.7049206018	possibly infinite
0.7048973070	model reduction
0.7048728451	connected nodes
0.7048701757	smooth objectives
0.7048622535	bernoulli rewards
0.7048352685	sufficiently rich
0.7048276770	achieved impressive results
0.7048124805	pruning algorithm
0.7047980554	structural assumptions
0.7047875870	corrupted observations
0.7047672404	million nodes
0.7047662417	training dataset
0.7047442604	linear function approximation
0.7047265190	spike and slab
0.7047082714	computation overhead
0.7047061993	research effort
0.7046829574	meta classifier
0.7046680262	sufficiently sparse
0.7046263177	theoretical insight
0.7044676904	average auc
0.7043766273	fundamentally limited
0.7043743983	imperceptible adversarial
0.7042803133	long short
0.7042758436	affect recognition
0.7042711332	optimal clustering
0.7042480779	wasserstein autoencoder
0.7041887484	deep linear neural networks
0.7041553402	markov reward
0.7041289325	weak oracle
0.7040875751	vanishing gradient
0.7040818300	previous approaches
0.7040401847	disease detection
0.7039468809	hierarchical prior
0.7039335582	input perturbations
0.7039319008	nonlinear transformations
0.7039043226	diagnostic accuracy
0.7038238264	performance boost
0.7038129987	index set
0.7038042890	training cost
0.7037997863	nas algorithms
0.7037555956	quasi likelihood
0.7037512999	uci machine learning repository
0.7037471964	memory constrained
0.7037354240	stock prediction
0.7036910739	great flexibility
0.7036751065	financial time series
0.7036717253	graph convolution network
0.7036414046	originally proposed
0.7035797663	limiting behavior
0.7035592452	human language
0.7034619752	model selection consistency
0.7034472711	provably optimal
0.7034037832	sample complexity guarantees
0.7033495666	average error
0.7033071828	bayesian computation
0.7032994602	training sets
0.7032950030	software library
0.7032869208	multi armed bandit problem
0.7032776310	style algorithms
0.7032646660	reward signals
0.7032643829	major difficulty
0.7032363483	substantially outperforming
0.7031795602	cognitive model
0.7031311537	alternating direction method
0.7030775159	fusion strategy
0.7030516056	threshold based
0.7030356266	convolution network
0.7030146707	model based clustering
0.7029645755	cubic complexity
0.7029489887	dimensional data
0.7029264770	target dataset
0.7029146730	order feature interactions
0.7028754136	model updates
0.7027862554	causal directions
0.7026537054	rank based
0.7026456596	human players
0.7026376872	shape priors
0.7025705985	active sampling
0.7025672361	similar tasks
0.7025623585	ridge estimator
0.7025234389	generalisation error
0.7025087445	bidirectional long
0.7024997751	dense regions
0.7024723164	considerable improvements
0.7024713348	challenges arise
0.7024594057	healthcare costs
0.7024534404	state trajectories
0.7024475731	random number
0.7024303980	high dimensional spaces
0.7024187501	great potential
0.7023300923	imaging data
0.7023272899	deep linear networks
0.7022429874	generative factors
0.7022300360	heterogeneous information
0.7021700220	domain expert
0.7021493786	real data sets
0.7021214062	attracted attention
0.7021024885	numerical values
0.7020825501	vulnerability detection
0.7020791819	simple heuristics
0.7020768874	arora et al
0.7020733198	digit dataset
0.7020383645	cand \ `
0.7020086633	comparable results
0.7019341782	higher order moments
0.7019281851	shallow network
0.7019174835	calibration method
0.7018983838	nodes represent
0.7018886202	multiplicative approximation
0.7018353648	training points
0.7018226673	shown promising results
0.7017696922	rare classes
0.7017269555	lower order
0.7017201455	process regression
0.7017179886	underlying subspace
0.7017058855	perturbation analysis
0.7016736821	comparable performance
0.7016504535	preprocessing stage
0.7016446144	sampling methods
0.7016183649	selection criterion
0.7015960454	resulting policy
0.7015643702	continuous function
0.7015521216	weaker assumptions
0.7014580921	discounted markov decision
0.7014095494	eeg classification
0.7013595143	binary class
0.7013579957	robust mdps
0.7013299905	real world graphs
0.7012940805	public benchmark datasets
0.7012870338	similarity metrics
0.7012820397	validation dataset
0.7012723647	vector regression
0.7012639005	model capacity
0.7012576514	fixed step size
0.7012530226	deeper architectures
0.7012501272	experiments confirm
0.7011783656	constant regret
0.7011311774	bi clustering
0.7011301821	synthetic speech
0.7011069415	deep decoder
0.7010852550	proper initialization
0.7010786363	weighted discrimination
0.7010238330	assign higher
0.7010118655	lower complexity
0.7010087816	heavy tailed noise
0.7010048926	sampling points
0.7009484310	image transformations
0.7008946271	auxiliary losses
0.7008838584	selected features
0.7008794824	convex analysis
0.7008403204	treatment outcomes
0.7008003273	gradient dynamics
0.7007739350	medical practitioners
0.7007695456	single node
0.7007581526	key advantages
0.7007192038	positive negative
0.7006564827	random weights
0.7006432518	google research
0.7006383127	decision making systems
0.7006048152	advantage weighted
0.7005835835	selection policy
0.7005805058	backward stochastic differential
0.7005777253	cross conformal
0.7005360204	experimental result shows
0.7005349950	convex loss
0.7005233556	mixing times
0.7004454525	conditional computation
0.7004446702	motor control
0.7004442067	million patients
0.7003795744	orthogonal basis
0.7003277790	surface temperature
0.7003237886	semantically similar
0.7002917767	limited training data
0.7002433543	wide area
0.7002304932	single label
0.7002289645	input samples
0.7002281965	representation space
0.7001887097	widely popular
0.7001874137	learning systems
0.7001726620	brain activation
0.7000465682	graph level representation
0.6999994086	fully parallel
0.6999910614	asymptotic convergence
0.6999220519	response function
0.6998676707	concentration bound
0.6998429219	major advantages
0.6997810608	technical conditions
0.6997407691	based classifiers
0.6996640394	bayesian inverse problems
0.6995989791	symmetry group
0.6995978128	direct connection
0.6995830076	parametric distribution
0.6995512613	training data
0.6995059311	assumption free
0.6995056003	gan based
0.6994671790	synthesized data
0.6994325810	strong assumptions
0.6994265999	normalization methods
0.6993695793	effect heterogeneity
0.6992732447	asymptotic regime
0.6992376388	inverse design
0.6991980459	low rank representation
0.6991915541	intensity function
0.6991869680	consistent estimation
0.6991840832	prediction markets
0.6991679469	requiring fewer
0.6991420722	improving adversarial robustness
0.6991409900	sample based
0.6991214146	rapid learning
0.6991200554	generalized zero shot learning
0.6991190968	markov logic
0.6990921059	kernel size
0.6990452669	arbitrary depth
0.6990434246	sparse connectivity
0.6990119122	softmax function
0.6990051321	gan architectures
0.6989750002	combinatorial constraints
0.6989662572	covariance kernel
0.6989522031	noise statistics
0.6989119494	feature generation
0.6988448151	expected values
0.6988121767	population health
0.6987880397	bandit optimization
0.6987654981	evaluation criterion
0.6987268444	contextual word
0.6987207615	sublinear convergence
0.6987158548	predicted probability
0.6987158072	classification task
0.6986950100	continuous latent variables
0.6986845982	test point
0.6986763502	approximation scheme
0.6986065182	average cost
0.6986011002	related fields
0.6985973189	data type
0.6985964701	image priors
0.6985689538	activity monitoring
0.6985679192	information theoretic limits
0.6985416263	aperture radar
0.6985405909	difficulty levels
0.6985131412	partial correlation
0.6985094584	segmentation network
0.6984906307	spurious local
0.6984855413	valued data
0.6984827361	least angle regression
0.6984647782	graph filtering
0.6984564455	gained increasing
0.6984130385	linear mappings
0.6984023415	computation cost
0.6983990498	external factors
0.6983771656	multi view learning
0.6982979284	search efficiency
0.6982959268	collective matrix
0.6982797419	information filtering
0.6982594589	simulation results
0.6982217623	image content
0.6982181055	realistic images
0.6981923874	proximal algorithm
0.6981742764	information theoretically
0.6981703386	adam optimizer
0.6981655824	neural population
0.6981270445	doubly robust estimator
0.6980742014	coding theory
0.6980298975	spatio temporal data
0.6980275030	zero sum games
0.6979902964	error decays
0.6979732230	latent topic
0.6979060652	joint source
0.6978945163	extensive experimental results
0.6978664601	generation tasks
0.6978343471	information sharing
0.6978302429	inter domain
0.6978091890	input instance
0.6977821092	efficient implementation
0.6977569412	dataset sizes
0.6977528454	gender classification
0.6977409118	multiple criteria
0.6977241108	user experiences
0.6976898956	clustering methods
0.6976628526	clustering performance
0.6976550409	synaptic weight
0.6976220146	input vector
0.6975989855	operating points
0.6975978563	highly complex
0.6975716707	quantum classical
0.6975665260	shape analysis
0.6975614216	pricing policy
0.6975440112	sound quality
0.6975145338	non negative matrix factorization
0.6975048453	target tasks
0.6975004131	statistical queries
0.6974973721	multi dimensional scaling
0.6974720777	subgraph patterns
0.6974278400	sinkhorn algorithm
0.6974030670	sentence representations
0.6973954026	social media data
0.6973545556	ct image
0.6973407271	large training sets
0.6973053264	sparse canonical correlation analysis
0.6973005995	discrete state
0.6972897789	attracted increasing
0.6972892419	geometric graphs
0.6972264858	off policy actor critic
0.6971780208	shape bias
0.6971536434	mathematical analysis
0.6971531785	order taylor
0.6971455996	source target
0.6971437308	variable projection
0.6971320580	practical applicability
0.6971307911	sensor selection
0.6971295991	relevance propagation
0.6971198595	machine reading
0.6971108735	discriminative power
0.6970938498	identifiability result
0.6970660217	knapsack problem
0.6970545487	parameter inference
0.6969608069	likelihood functions
0.6969497419	real world datasets
0.6969357735	sensing modalities
0.6969129087	prediction rule
0.6968893040	large scale datasets
0.6968629731	results showed
0.6968374913	random access
0.6968275389	posterior regularization
0.6968181130	temporal sequences
0.6967781929	online planning
0.6967277111	minimax optimal rate
0.6965377281	moment estimation
0.6965206137	divergence measure
0.6965179734	multiple related
0.6964941826	quantized neural networks
0.6964929327	constrained clustering
0.6964699378	accurately classify
0.6964549271	randomized trees
0.6964125483	robust mean estimation
0.6963357760	mri images
0.6962488112	paired samples
0.6962247421	results confirm
0.6962234519	copula based
0.6961669333	unlike previous works
0.6961500089	bounded variance
0.6961493358	ensemble pruning
0.6961408869	direct optimization
0.6961329165	abstract concepts
0.6961148814	covid 19
0.6960999652	convolution kernels
0.6960714159	local entropy
0.6960623706	input image
0.6960573676	fast growing
0.6960376392	student networks
0.6960363773	boosting framework
0.6960209823	deep learning systems
0.6960118228	confidence measure
0.6960038774	partial ranking
0.6959623151	event times
0.6958711110	gradient regularization
0.6958596308	craft adversarial
0.6958583195	model's performance
0.6958546942	crime prediction
0.6958467776	figure of merit
0.6957857135	weighted l1
0.6957431292	differentiable approximation
0.6957101601	validation loss
0.6956994662	task relationships
0.6956906644	annotation process
0.6956724051	realistic samples
0.6956330437	analysis dictionary
0.6956240281	multiple languages
0.6955966743	cross layer
0.6955955135	gaussian likelihoods
0.6955257665	ucr time series
0.6955064113	detection methods
0.6955006836	nonlinear partial differential equations
0.6954084127	hidden space
0.6953891607	distribution families
0.6953814098	target node
0.6953666135	boosted tree
0.6953538136	spiked covariance model
0.6953418618	edge probability
0.6953041060	label information
0.6952226836	wide networks
0.6951918631	generative adversarial net
0.6951524571	attention maps
0.6951310538	prior art
0.6950798881	pseudo regret
0.6950362875	semi structured
0.6950140277	real world applications
0.6949950000	high dimensional datasets
0.6949773431	covariance structure
0.6949261947	deep architecture
0.6949151579	interpretation methods
0.6949062480	statistical test
0.6948856804	scalable bayesian inference
0.6948589544	varying size
0.6948537002	experimental studies
0.6948045187	approximation methods
0.6947981105	low entropy
0.6947641072	future states
0.6947563607	partial recovery
0.6947470151	auxiliary samples
0.6947175162	k nearest neighbor
0.6947085385	learned features
0.6946978732	convex case
0.6946555724	data fitting
0.6946385777	sampling procedure
0.6946216724	theoretic quantities
0.6946007758	textual features
0.6945841949	lower bounding
0.6945314602	mixed type data
0.6945251192	biased estimates
0.6945017891	treatment recommendations
0.6944933317	transformation based
0.6944425045	multivariate distributions
0.6944242773	similar features
0.6944232808	activity patterns
0.6944216620	order optimal
0.6944096114	recognition tasks
0.6943342109	active exploration
0.6943181948	property testing
0.6942868628	shape constrained
0.6942320322	networked systems
0.6941730392	regularization methods
0.6941679314	recently released
0.6941339627	smooth manifolds
0.6940641536	gan architecture
0.6940323714	generalized self concordant
0.6940270359	bounded noise
0.6940119331	histogram based
0.6939784215	evaluation tasks
0.6939502083	recently developed
0.6939346008	unlike previous approaches
0.6938873442	softmax activation
0.6938530448	low noise condition
0.6938426562	predictive ability
0.6938258344	temporal data
0.6938094934	trained dnns
0.6937759534	social choice
0.6937627127	extremely small
0.6937394173	weight vector
0.6937232831	class prediction
0.6937063173	selection consistency
0.6936789822	practical usage
0.6936651978	deep q network
0.6936384708	divergence measures
0.6935880976	input images
0.6935662743	masked conditional neural
0.6935607708	results reveal
0.6935089837	complexity analysis
0.6934607641	fuzzy min max neural
0.6934527580	pairwise constraints
0.6934514413	performance measure
0.6934201353	initially unknown
0.6933998613	guaranteed convergence
0.6933736235	hierarchical latent
0.6933648315	bayesian calibration
0.6933406244	mathematical proof
0.6933113057	achieves superior
0.6933105933	recently proposed
0.6932892294	progressive learning
0.6931875132	recently received
0.6931105055	clustering results
0.6931077713	significantly degrade
0.6930765712	momentum method
0.6930723619	edge types
0.6929988060	descent methods
0.6929790579	neural populations
0.6929691045	frank wolfe optimization
0.6929689444	log softmax
0.6929583057	inter view
0.6929461192	original inputs
0.6929316372	sample complexity bounds
0.6929165236	label quality
0.6928516057	video coding
0.6928218253	machine learning tools
0.6928070547	gained considerable
0.6927903157	pairwise markov
0.6927510072	rank constraint
0.6927504579	mnist and fashion mnist
0.6927489720	shown remarkable
0.6927448590	imbalanced data classification
0.6927029323	regularization based
0.6926726370	drl based
0.6926595419	mnist handwritten
0.6926576973	regularization schemes
0.6926208909	signal to noise ratio
0.6926081721	stochastic approximations
0.6926045284	pairwise comparison data
0.6925999702	network wide
0.6925528220	ultimate goal
0.6925396449	future outcomes
0.6925254962	enhanced speech
0.6925147943	multimodal language
0.6924496043	topological structure
0.6924493084	linear combinations
0.6924366803	learnable parameters
0.6924338227	automated decision making
0.6923751063	average f1 score
0.6923746591	deep exploration
0.6923669794	data efficiency
0.6923483140	vector operations
0.6923442838	pairwise distance
0.6923388402	variational principle
0.6923258740	variational methods
0.6923072089	tail behavior
0.6922627071	test samples
0.6921924954	highly flexible
0.6921918967	changing environment
0.6921594072	unified framework
0.6921522008	positive impact
0.6921472850	feature propagation
0.6921383500	mixing coefficients
0.6921064684	input sparsity
0.6920772129	raw text
0.6920624461	search tree
0.6920564470	global navigation
0.6920287169	competing alternatives
0.6920040258	detection algorithms
0.6919967684	deterministic conditions
0.6919949506	strictly convex
0.6919947330	dataset distillation
0.6919726034	failure prediction
0.6919342205	computational speed
0.6919037849	loss discrepancy
0.6919031883	ml model
0.6918666008	convergence results
0.6918561647	hilbert space embedding
0.6918290436	probability estimation
0.6918175802	consistently outperformed
0.6917808824	item response
0.6917554085	machine learning methods
0.6917515066	model selection procedure
0.6917010801	direct feedback
0.6916562431	type algorithms
0.6916359304	error metrics
0.6916347539	feature detectors
0.6916042121	comparative analysis
0.6915487374	small batch sizes
0.6915102383	robust accuracy
0.6914916886	markov network
0.6914831066	human robot
0.6914734367	nonlinear system identification
0.6914314866	label aware
0.6914184474	neighbor embedding
0.6914052645	contextual bandit problem
0.6913951396	distance metrics
0.6913184196	exchange algorithm
0.6912868563	matrix variate gaussian
0.6912850004	human annotations
0.6911540003	edge probabilities
0.6911531714	robot localization
0.6911469831	main task
0.6911135207	huge datasets
0.6911121403	adversarial machine learning
0.6911091101	image classifier
0.6911061579	edge information
0.6911018711	chaotic dynamical
0.6910987931	spectral densities
0.6910893080	dnn model
0.6910550588	reduced precision
0.6910381252	deep clustering
0.6909629699	healthcare systems
0.6909493914	stationary gaussian process
0.6909386209	translation tasks
0.6909344741	estimation problems
0.6909332630	counterfactual learning
0.6909000790	collective behavior
0.6908965139	detection problem
0.6908929123	functional magnetic
0.6908574564	hospital mortality
0.6908468480	high variability
0.6908409536	probabilistic matrix factorization
0.6907777722	experimental analysis
0.6907246090	beta distribution
0.6907217819	correntropy criterion
0.6906897623	ml pipeline
0.6906494101	poor performance
0.6906177775	significantly lower
0.6905954715	bayesian approach
0.6905949878	query efficiency
0.6905335161	multiple sources
0.6905270769	vis \ `
0.6905044910	earlier studies
0.6904973391	complementary information
0.6904871165	aggregation rules
0.6904833421	transportation networks
0.6904649929	coupling layers
0.6903744764	baseline methods
0.6903689360	contamination model
0.6903138977	financial applications
0.6902814205	multi task regression
0.6902715200	weighted sampling
0.6902081724	autonomous driving systems
0.6901970071	identity matrix
0.6901854763	cross language
0.6901839875	graph laplacian matrix
0.6901814924	spatial dependence
0.6901740494	jointly learning
0.6901700596	theoretical advances
0.6901611698	privacy mechanisms
0.6900860471	monitoring data
0.6900842648	stark contrast
0.6900371599	regression task
0.6899849614	improving robustness
0.6899528511	latent process
0.6899461586	experimental data
0.6899017746	divide and conquer
0.6898950118	research topics
0.6898850861	binary weights
0.6898796896	meta dataset
0.6898625156	algorithmic complexity
0.6898468972	outperforms competing
0.6898307781	linear operator
0.6898211052	spectral graph theory
0.6898044684	local density
0.6898015065	run times
0.6897910273	algorithm enjoys
0.6897789804	test points
0.6897698741	binary code
0.6897479512	supervised domain adaptation
0.6897373593	stochastic gradient ascent
0.6897167354	human performance
0.6897117382	search algorithms
0.6897113454	multi agent reinforcement
0.6896985212	observation model
0.6896760619	bayesian statistics
0.6896192752	standard benchmarks
0.6895381314	energy resources
0.6895091618	information theoretic measures
0.6893850942	significantly enhance
0.6893548284	reinforcement learning algorithms
0.6893446699	dependency networks
0.6893344327	extensive evaluation
0.6892774003	hyperspectral data
0.6892646255	correctly labeled
0.6891969546	dnn inference
0.6891969371	sample size requirement
0.6891797603	sampling based
0.6891412323	inter dependencies
0.6891263376	feature influence
0.6890716802	model parameters
0.6890581834	search cost
0.6890540063	multiple outputs
0.6890483927	mobile network
0.6889868135	representative samples
0.6889295472	convolutional dictionary
0.6889110520	multiple instances
0.6889079886	comparative studies
0.6889056824	multiple data sources
0.6888629697	binary regression
0.6888434476	statistical theory
0.6888334127	local information
0.6888213585	spatial statistics
0.6887764691	query efficient
0.6887745158	clinical prediction
0.6887554445	discretization schemes
0.6887401220	regularization method
0.6887334392	brain connectivity networks
0.6887230568	bayesian network classifiers
0.6886758665	algorithmic solutions
0.6886613799	information fusion
0.6886474913	user response
0.6886193405	geometry aware
0.6885898916	type i error
0.6885779232	bayesian model selection
0.6884913064	jointly optimize
0.6884888607	compression rate
0.6884849051	best arm identification
0.6884493809	spherical gaussian
0.6884492765	generative process
0.6884070376	evidence based
0.6883897327	practical importance
0.6883518760	kernel mean embedding
0.6883193453	positive transfer
0.6883169222	significance test
0.6883147734	challenge dataset
0.6883101412	frequency division
0.6882628295	genetic data
0.6882342634	instance specific
0.6881945700	parameter optimization
0.6881900085	internet of things
0.6881639229	high dimensional distributions
0.6881484473	empirical results
0.6881438362	single player
0.6881346392	parametric rate
0.6881249172	acyclic graphs
0.6880840945	realistic settings
0.6880840120	dl based
0.6880751112	quantile estimation
0.6880390021	optimization procedure
0.6879518665	multi round
0.6879388111	fully convolutional network
0.6879172690	action sets
0.6879142763	artificial systems
0.6878820071	mechanical properties
0.6878293197	spatial prediction
0.6878163335	low dimensional manifold
0.6878138639	double q learning
0.6878027689	critical domains
0.6878020597	fuzzy systems
0.6877372320	attention model
0.6877311845	regularization paths
0.6877120199	embedding quality
0.6876791762	rich information
0.6876784731	data loading
0.6876459297	multivariate binary
0.6875853971	average accuracy
0.6875620977	independent bernoulli
0.6875542411	examples include
0.6875480256	individual predictions
0.6875424808	vector embeddings
0.6875404506	neural representations
0.6875131562	gradient steps
0.6875112371	complex tasks
0.6875045999	last iterate convergence
0.6874579767	frequency based
0.6874147747	magnitude based pruning
0.6874131756	message passing scheme
0.6874027558	evaluation protocols
0.6873811137	small size
0.6873469775	fully differentiable
0.6873392728	condition holds
0.6873361018	posterior consistency
0.6872778360	compressive learning
0.6871208915	deterministic policy
0.6871192241	preprocessing techniques
0.6871128837	continuous control benchmarks
0.6870136412	assignment problem
0.6868841135	radar data
0.6868351562	feedback weights
0.6868030570	decision theory
0.6867792098	superhuman performance
0.6867640816	sensitive data
0.6867298977	training regime
0.6867096677	loading matrix
0.6867020543	algorithmic framework
0.6866844553	lyapunov functions
0.6866548455	semantic content
0.6866493890	random initial
0.6866475123	media sites
0.6866047030	nonconvex optimization problems
0.6865909700	satisfactory performance
0.6865754757	physical properties
0.6864893937	location scale
0.6864602085	ultrasound image
0.6864363364	behavioral data
0.6864260654	extra gradient
0.6864197018	similar accuracy
0.6864123564	truncated normal
0.6863574203	randomly sampling
0.6863555529	treatment policies
0.6863060769	fairness criterion
0.6862233114	differentiable neural
0.6861708557	low dimensional structures
0.6861175389	disease gene
0.6860974578	infinite latent
0.6860960094	lattice based
0.6860778761	deep net
0.6860493339	clustering problem
0.6860316463	distributed fashion
0.6860094717	dnn hmm
0.6859751607	computationally challenging
0.6859607088	urban environments
0.6859588279	symmetry transformations
0.6858817517	oracle complexity
0.6858705692	online algorithms
0.6858651363	active learning strategies
0.6858372275	regularization terms
0.6857701120	based anomaly detection
0.6857566690	training criteria
0.6856904120	relevance scores
0.6856815730	causal relation
0.6856643923	inference techniques
0.6856633843	cancer research
0.6856369808	network layers
0.6856100195	dimensional vector
0.6855888690	goal space
0.6855781211	existing approaches
0.6854711603	causal variables
0.6854245338	main advantages
0.6854124583	method named
0.6853495839	generative discriminative
0.6853349736	semantic concepts
0.6853160238	downstream applications
0.6852843354	imbalanced classes
0.6852836810	null model
0.6851815877	practical issues
0.6851771272	classic control
0.6851753752	security critical
0.6851662524	belief state
0.6851509214	predictive distribution
0.6851358005	hierarchical graph
0.6851334843	gradient quantization
0.6851307846	rnn model
0.6851253787	existing gnns
0.6851239134	key ingredient
0.6851210312	distribution grid
0.6851168011	resource constrained environments
0.6851020721	interaction aware
0.6850082418	stochastic composite
0.6849947128	deep q networks
0.6849797798	interesting connections
0.6849156912	base model
0.6849111672	globally optimal solution
0.6848956788	stochastic composition
0.6848357300	longer term
0.6848128091	single input
0.6847742084	knn classifier
0.6847694497	iterative algorithm
0.6847216490	pre activation
0.6847120584	statistical hypothesis testing
0.6846718196	input feature
0.6846605558	resnet architecture
0.6846035419	sparse view
0.6845766797	analytical solution
0.6845665883	task independent
0.6845533583	tight bound
0.6845430560	metric based
0.6845337631	highly nonlinear
0.6845262059	constrained convex
0.6845070947	hybrid monte carlo
0.6844630795	local feature
0.6844606464	unsupervised outlier detection
0.6844439419	result shows
0.6844343936	incomplete information
0.6844096411	newly proposed
0.6843776602	greedy exploration
0.6843703479	human intuition
0.6843078977	distribution independent
0.6842902799	practical situations
0.6842861029	converge quickly
0.6842751266	treatment policy
0.6842607490	concept classes
0.6842470650	order derivative
0.6842165111	scientific domains
0.6842087673	policy gradient method
0.6841644095	completion problem
0.6841642546	prior belief
0.6840945848	online communities
0.6840762534	distributed setting
0.6839959878	neural attentive
0.6839696101	position paper
0.6839657385	extensive simulation studies
0.6839561990	learning tasks
0.6839534417	aggregation step
0.6839168808	aleatoric and epistemic
0.6838471157	parameter reduction
0.6838212204	public data sets
0.6838098028	simulated robot
0.6837473385	recent proposals
0.6837445781	screening methods
0.6837013586	fully autonomous
0.6836921054	robust kernel
0.6836903377	accurately predicts
0.6836882575	computation graph
0.6836852970	improve generalization
0.6836790231	base class
0.6836774146	noisy labeled data
0.6836733935	algorithm converges
0.6836399389	problem formulation
0.6836364481	subgraph features
0.6836117723	numerical results
0.6835631113	iterative procedure
0.6835079530	knowledge based
0.6834747455	graph edges
0.6834337931	robust classifiers
0.6834303375	feature allocation
0.6833992106	significant speedup
0.6833707356	task relationship
0.6833423539	positive samples
0.6833293422	effect size
0.6833228872	cost sensitive learning
0.6832692830	higher order tensor
0.6832346567	consistent improvements
0.6832304044	robust learning
0.6832057055	annotation cost
0.6831725979	entropy loss
0.6831525297	predictive modelling
0.6831415312	effectively reduce
0.6831336038	treatment decisions
0.6830849603	generating graphs
0.6830491561	bayesian analysis
0.6830479058	machine learning tasks
0.6830433979	rna sequencing
0.6830402406	feature selection method
0.6830230117	regression function
0.6830109118	optimal assignment
0.6829701357	main ideas
0.6829322904	spectral initialization
0.6828580838	topological properties
0.6828565113	mixed strategies
0.6828256753	map matching
0.6828121872	latent manifold
0.6828021818	multiple labels
0.6827826307	nmf algorithms
0.6827438177	asymptotic distributions
0.6826924405	fully trained
0.6826875132	likelihood evaluations
0.6825950071	face dataset
0.6825887398	scarce data
0.6825785686	visual question
0.6825432682	interpretable model
0.6825238946	sensitive hashing
0.6825000068	graph based ssl
0.6824778568	fundamental limit
0.6824709476	model inversion
0.6824546509	term weighting
0.6824131009	return distribution
0.6823318593	standard rl
0.6822946600	dynamic processes
0.6822210737	vector valued reproducing kernel
0.6822122690	generating diverse
0.6822069739	modulation classification
0.6821503243	application scenarios
0.6821362095	layer weights
0.6821236233	excess risk bounds
0.6820883897	video based
0.6820502120	prediction tasks
0.6820172507	machine learning research
0.6819690691	dimensionality reduction methods
0.6819057183	statistical dependencies
0.6818513185	temporal relationships
0.6818462058	confounding variables
0.6818092872	allocation strategies
0.6818047427	physical meaning
0.6817844886	optimization methods
0.6817748679	sample diversity
0.6817741667	case control
0.6817380978	image data
0.6817309940	temporal point process
0.6817151767	variance function
0.6816560622	recognition accuracy
0.6816005052	asymptotically valid
0.6815515049	domain difference
0.6815116725	likelihood based
0.6815019018	random partition
0.6814264614	single class
0.6813871052	open datasets
0.6813454746	global optimizer
0.6812891993	matching lower bounds
0.6812588755	shared latent
0.6812328932	improved results
0.6811848782	markov random
0.6811770020	support estimation
0.6811746627	mixed integer linear
0.6811600061	web based
0.6811407657	adversarial nets
0.6811023817	constrained markov decision
0.6810955914	stochastic setting
0.6810947725	tabular case
0.6810628179	labelled samples
0.6810540413	collaborative machine learning
0.6810529601	predictive variance
0.6810151157	negligible cost
0.6810135141	approximation algorithms
0.6809925290	low dimensional latent
0.6809881807	mutual information estimation
0.6809488278	missing features
0.6809399548	deep recurrent
0.6809355642	age prediction
0.6808899748	random perturbation
0.6808735151	lasso estimator
0.6808713347	temporal smoothness
0.6808539684	generative distribution
0.6808469506	feature importance scores
0.6808336641	attracted significant
0.6808323439	gcn based
0.6807100643	weight averaging
0.6806561151	nonlinear control
0.6806460476	bayesian active learning
0.6804913270	safe set
0.6804481114	data representation
0.6804434870	interaction terms
0.6804421227	sufficiently high
0.6804393525	experimentally demonstrate
0.6804217527	accelerated stochastic gradient descent
0.6804173042	model adaptation
0.6803919419	tree tensor
0.6803233460	weighted combination
0.6803126655	conditional dependencies
0.6802820635	critical applications
0.6802699492	visual representation
0.6801917996	recognition task
0.6801885383	fusion module
0.6800839546	latent processes
0.6800693221	bayesian deep learning
0.6800519201	statistical model
0.6800053195	spline based
0.6800002731	human behaviors
0.6798771096	maximization step
0.6798682148	resnet 50
0.6798434309	energy minimization
0.6797939052	information mart for intensive
0.6797762215	deep cnn
0.6797693336	inference stage
0.6797190419	minimum probability
0.6796976511	feed forward networks
0.6796460090	goodfellow et al
0.6796198098	mixed precision training
0.6796186781	label complexity
0.6796099206	sparsity aware
0.6795922788	cost reduction
0.6795757729	improved robustness
0.6794984484	complex phenomena
0.6794779484	task irrelevant
0.6794025145	explicit feedback
0.6793975934	image sets
0.6793506308	multiple modes
0.6792825433	computation complexity
0.6792590105	explanatory factors
0.6792488663	retrospective analysis
0.6792445853	classification errors
0.6792295008	random weight
0.6792281660	feature matching
0.6792087771	transaction data
0.6791734807	biological neural
0.6791557502	personal data
0.6791553877	counterfactual prediction
0.6791452869	testing set
0.6791442036	distance preserving
0.6790939652	decision making processes
0.6790911774	stochastic variance
0.6790668836	theoretical claims
0.6790218473	stationary state
0.6789966102	likelihood estimator
0.6789641741	penalized least squares
0.6789506839	resnet 18
0.6789459797	making predictions
0.6789365189	model confidence
0.6789353622	single round
0.6789291669	information rate
0.6789147030	physics constrained
0.6789060942	clinical research
0.6789056844	noisy environments
0.6788841077	sample specific
0.6788622689	training error
0.6788618724	gaussian measures
0.6788612143	practical success
0.6788526216	huge potential
0.6788357832	informed decisions
0.6788314272	substantial gains
0.6788096906	past data
0.6787958804	data point
0.6787667834	recommendation quality
0.6786635257	arbitrary dimension
0.6786607649	significantly accelerate
0.6786326336	generalization capabilities
0.6786062642	distributed processing
0.6785761951	temporal clustering
0.6785570660	valid confidence intervals
0.6785137723	identifiability conditions
0.6784806032	approximation quality
0.6784694990	overlapping group
0.6784405070	simulation study
0.6784154227	gradient alignment
0.6784105314	function values
0.6783986016	multimodal learning
0.6783850018	surrogate function
0.6783458751	gaussian distributed
0.6782863531	optimal sample complexity
0.6782723840	video content
0.6781832532	type 2 diabetes
0.6781749982	illustrative numerical
0.6781538798	correlated variables
0.6781450960	polynomial kernel
0.6781258260	experimental results confirm
0.6780648555	projection matrices
0.6780239230	sparsity assumption
0.6779715660	joint likelihood
0.6779674523	function valued
0.6779448284	validation sets
0.6778942383	convergence analyses
0.6778590939	optimal experimental design
0.6777479749	empirically evaluate
0.6777039364	multi modal data
0.6776894037	linear dynamics
0.6776230916	training deep neural networks
0.6776197223	margin distribution
0.6775702322	gradient information
0.6775641755	density estimates
0.6775363519	augmentation techniques
0.6775236309	task transfer
0.6775149133	unsupervised alignment
0.6774640135	correlation structure
0.6774548770	universal adversarial
0.6773258748	bayesian regression
0.6773196653	secondary users
0.6772102753	highly effective
0.6771856463	open source python library
0.6771469189	long training times
0.6770989266	management systems
0.6770694958	high reward
0.6770559949	generated data
0.6770117103	spatial pattern
0.6770004199	small samples
0.6769811504	emerging field
0.6769265806	discrete latent space
0.6769110812	research works
0.6768983430	theoretically prove
0.6768982149	sequential probability
0.6768888545	learning speed
0.6768684075	quantized networks
0.6768566033	systematic errors
0.6768540281	possibly nonconvex
0.6768008102	performance degrades
0.6767931054	confidence predictions
0.6767860828	adaptively selects
0.6767844823	spatial transformations
0.6767768856	form games
0.6767145861	achieve higher
0.6766496757	translation task
0.6766197932	target object
0.6765890590	optimization framework
0.6765689639	biological neurons
0.6765380699	recent trend
0.6764935002	privacy level
0.6764852793	training dnns
0.6764683034	functional connections
0.6764510314	low noise
0.6764456080	query points
0.6763713183	unlike traditional
0.6763560809	method outperforms
0.6763341151	vae objective
0.6763324997	strong generalization
0.6762798205	individual cells
0.6762068960	mises fisher
0.6761937477	based classifier
0.6761933959	template based
0.6761255374	inter cluster
0.6761141509	discrete random
0.6761095991	quantum algorithms
0.6760922693	surrogate risk
0.6760865413	game play
0.6760779649	significant challenges
0.6760751738	stochastic gradient algorithms
0.6760657605	batch bayesian optimization
0.6759831992	group specific
0.6759808480	goodness of fit
0.6759606876	inductive logic
0.6759386275	flow cytometry data
0.6759309959	previously trained
0.6758437420	noise level
0.6758306199	substantially reduces
0.6757975990	domain invariance
0.6757717015	inference scheme
0.6757545351	surrogate loss functions
0.6757518764	distribution function
0.6757209531	predictive tasks
0.6757198899	unsupervised graph representation
0.6757149809	vgg 16
0.6756909728	user user
0.6756866540	optimization theory
0.6756709803	temporal features
0.6756654185	generalization performances
0.6756458823	multiple treatments
0.6756299217	feature distribution
0.6755278692	squared euclidean
0.6754907386	formally characterize
0.6754895740	broad applications
0.6754759006	centralized training
0.6754602422	stable distributions
0.6754459456	high density regions
0.6754353905	model validation
0.6754164206	model fit
0.6753745191	proven effective
0.6753509331	reliable predictions
0.6753251614	gaussian process classification
0.6753239113	minimax problems
0.6752953597	computational bottlenecks
0.6752552939	hot research topic
0.6752159350	optimization method
0.6752043596	output hypothesis
0.6751867223	extensive experimental
0.6751847866	smooth manifold
0.6751329481	extensive comparative
0.6750880364	practical relevance
0.6750767487	traditional methods
0.6750465223	cost efficient
0.6750463137	rows or columns
0.6750424584	great attention
0.6750365899	sensor modalities
0.6750029723	diagnostic tools
0.6749850278	efficient algorithms
0.6749762390	experimental results showed
0.6749751150	kernel spectral
0.6749522933	regularization parameters
0.6748933966	relational model
0.6748877648	theoretical limits
0.6748779779	average performance
0.6748529982	twitter dataset
0.6747962252	shot learning
0.6747684640	modern machine learning
0.6746996635	ongoing research
0.6746599620	comparable accuracy
0.6746465014	tree index
0.6746123931	efficient estimation
0.6745987718	human life
0.6744717031	systematic review
0.6743733920	density matrices
0.6743586715	social interaction
0.6743380813	parameterized regime
0.6743340946	theoretical perspective
0.6743204515	quantitative metrics
0.6743107915	flow field
0.6742882719	high computational cost
0.6742802081	machine learning based
0.6742496496	multiple hypothesis testing
0.6742487334	recommendation methods
0.6742274408	effective dimensionality
0.6741537256	theoretical bounds
0.6741524970	perform favorably
0.6741429986	prohibitive cost
0.6740396196	coordinate gradient descent
0.6740243072	zhang et al
0.6739983970	label dependencies
0.6739602037	neural network ensembles
0.6739560603	positively correlated
0.6739408622	quality criteria
0.6739246196	graph data
0.6738600159	machine learning perspective
0.6738510148	search strategies
0.6738491922	medical concepts
0.6738053913	parameter count
0.6737993618	simulated dataset
0.6737905193	solution quality
0.6737855605	communication topology
0.6737534120	key issues
0.6737242905	direct search
0.6737183523	huge success
0.6737141573	image sequences
0.6736595810	distributed algorithms
0.6736129946	adaboost algorithm
0.6736066619	network quantization
0.6735933073	real values
0.6735756676	automatically detect
0.6735381971	direct supervision
0.6734508107	large scale industrial
0.6734355602	medical research
0.6734205080	bayesian regret
0.6734132585	toy model
0.6733921218	human speech
0.6733889235	quality diversity
0.6733870471	online multiclass
0.6733398017	incoming data
0.6733260325	gan framework
0.6733126888	seizure prediction
0.6732653095	extremely high
0.6732367544	difficult examples
0.6732037165	streaming settings
0.6731593296	variational optimization
0.6731349068	source language
0.6731111210	rigorously prove
0.6730893243	fairness metric
0.6730596607	communication graph
0.6730533140	streaming algorithm
0.6730182082	hidden representation
0.6730022822	computational limits
0.6729990160	instance space
0.6729867482	processing speed
0.6729773649	distance dependent
0.6729339764	increases exponentially
0.6728689821	confidence region
0.6728538620	model evaluation
0.6728534180	ranking functions
0.6728406692	human health
0.6728249206	finite sample bounds
0.6728211063	defense methods
0.6728097823	multi node
0.6727881499	linear mixed
0.6727752285	hardware cost
0.6727646200	permutation based
0.6727575796	temporal modeling
0.6727510256	scalable gaussian processes
0.6727301668	user devices
0.6727254112	higher moments
0.6726773366	ticket hypothesis
0.6726754185	payoff functions
0.6726636864	decision level
0.6725876937	test functions
0.6725851933	control strategy
0.6725311661	learned representation
0.6725252530	basins of attraction
0.6725215047	word representation
0.6725122711	short term forecasting
0.6724899141	end to end trainable
0.6724507376	update equations
0.6724457822	mapping function
0.6724288832	da methods
0.6724012750	theoretical analysis shows
0.6722951430	computational advantage
0.6722524434	closed convex
0.6722442498	significantly increased
0.6722377818	global search
0.6722152431	audio features
0.6721968053	pareto front
0.6721558856	convex optimization problem
0.6721131344	image domain
0.6720105636	data augmentation techniques
0.6719970879	adversarial environments
0.6719279259	series classification
0.6719002005	brain dynamics
0.6718953197	pac bayesian bounds
0.6717781717	functional space
0.6717523138	based positioning
0.6717216666	cell state
0.6716901791	planning problem
0.6716580382	model predictions
0.6716402945	unsupervised machine learning
0.6716187955	spatial attention
0.6715825043	problems involving
0.6715818255	based metrics
0.6715565505	network nodes
0.6715489472	internal model
0.6715350581	adaptation strategies
0.6714936959	class level
0.6713239246	action sequence
0.6713147173	small adversarial perturbations
0.6713060328	matrix vector
0.6712995001	total loss
0.6712712715	cluster tree
0.6712289398	constant factors
0.6712136254	aggregate information
0.6711951375	smoothness condition
0.6711623036	generalized additive
0.6711460339	training sample
0.6711300712	cnn lstm
0.6711044548	graph based semi supervised
0.6710905262	no free lunch
0.6710829211	e commerce
0.6709970380	meta gradients
0.6709682833	modern deep
0.6709170513	race or gender
0.6709135664	multivariate functional data
0.6709102129	human designed
0.6708964405	convex regression
0.6708593864	discrete space
0.6707896854	grouped data
0.6706944688	pre processing step
0.6706790573	labeled source
0.6706572927	wikitext 103
0.6706420541	quantized training
0.6706034039	surrogate loss function
0.6705637148	bayesian logistic regression
0.6705536519	network edge
0.6705517142	standard benchmark
0.6705512065	statistical procedures
0.6705244348	high entropy
0.6705091557	liu et al
0.6704606996	adaptive estimation
0.6704583566	dataset comprising
0.6704102357	targeted attack
0.6704033353	kernel weights
0.6703404050	heuristic based
0.6703392702	visual tasks
0.6703363763	human preferences
0.6702858290	decomposition method
0.6702504827	desired target
0.6702367717	object level
0.6702158874	ensemble size
0.6701889870	meta parameters
0.6701737940	previous research
0.6701737226	machine learned
0.6701693351	control units
0.6701454391	unit vector
0.6700822103	latent distribution
0.6700751386	image modeling
0.6700576049	marked temporal
0.6700486556	previously developed
0.6700411010	open source python
0.6700302106	node representation learning
0.6699806666	recently led
0.6699522402	finite set
0.6699008827	feature fusion
0.6698858231	model's prediction
0.6698379857	partially linear
0.6698355564	recent approaches
0.6698328169	binary neurons
0.6698215365	driving cars
0.6698059931	experiment results
0.6697893784	equivalence classes
0.6697054171	deep autoencoding
0.6696897724	analytical form
0.6696723503	finite mixtures
0.6696382951	convex surrogate loss
0.6696336687	distance estimation
0.6696113008	categorical features
0.6695986286	atari 2600
0.6695630898	base distributions
0.6695574160	substantially outperform
0.6695213997	multi input
0.6695052803	sampling strategy
0.6694530731	structural sparsity
0.6694148961	episodic markov
0.6693467216	small data
0.6693191405	satellite data
0.6692788920	test power
0.6692738686	conduct experiments
0.6692581715	learning techniques
0.6692358660	poisson matrix factorization
0.6691578141	data deletion
0.6691519867	sparse bayesian
0.6691349161	computational units
0.6690716265	avoid catastrophic
0.6690682024	risk minimizer
0.6690595112	structured matrices
0.6690410760	excellent empirical
0.6690349483	downstream task
0.6690330908	strong theoretical guarantees
0.6689998800	generator model
0.6689737433	difficult task
0.6689625406	continuous domain
0.6689346877	data subsets
0.6689206049	pairwise preferences
0.6689126303	input spaces
0.6688785742	experimentally verify
0.6688546016	effort required
0.6687479770	coronavirus disease 2019
0.6686921608	frequency estimation
0.6686504600	current approaches
0.6686369759	topic vectors
0.6686200762	security issues
0.6686167794	shannon information
0.6686130446	neural responses
0.6686074747	final results
0.6685650998	anti causal
0.6685584710	lstm rnn
0.6685501592	chemical structures
0.6684609309	pre existing
0.6684503864	fixed effects
0.6684374974	major components
0.6684149444	nonconvex optimization problem
0.6683833079	practical implementation
0.6682502474	residual neural networks
0.6682043695	multiplicative constant
0.6681709971	series analysis
0.6681693196	model based policy optimization
0.6681556805	sparse factor analysis
0.6681367613	clinical risk
0.6681271157	extremely difficult
0.6680771372	spurious features
0.6680155980	hybrid architecture
0.6680121963	superior results
0.6679817060	observed samples
0.6679803934	previously introduced
0.6679236351	extensive empirical
0.6679114652	fl algorithm
0.6679005448	cluster assumption
0.6678916857	latent dimensions
0.6678847416	adapt quickly
0.6678743895	assigning weights
0.6678397830	high dimensional statistics
0.6678298352	machine learning approaches
0.6678104009	health interventions
0.6677496763	visualization technique
0.6677293202	ensemble techniques
0.6677156548	achieving fairness
0.6677111688	update steps
0.6677041422	implicit variational inference
0.6676262490	action prediction
0.6676010738	flow prediction
0.6675971869	clustering tasks
0.6675481984	compute nodes
0.6675420772	signal to noise ratios
0.6675206531	smooth transition
0.6675134015	substantially fewer
0.6675011330	convolutional long short term memory
0.6675009272	input features
0.6674598609	discriminator network
0.6674436929	local interpretable model agnostic
0.6674071344	fully connected neural network
0.6674037266	noisy matrix completion
0.6673454081	iterative reconstruction
0.6673442163	great progress
0.6673398654	principle component
0.6673084912	linear dependence
0.6672723809	parameter settings
0.6672164555	gradient descent algorithm
0.6672150422	individual neurons
0.6672058087	irregular sampling
0.6672022382	choice set
0.6671971587	batch effects
0.6671882466	semiparametric model
0.6671843873	user interactions
0.6671762647	data manifolds
0.6671607972	location based
0.6671579911	modeling approaches
0.6671521640	linear rate
0.6670986866	model free reinforcement
0.6670413666	sparsity constraint
0.6670281622	drug interactions
0.6670229245	patient data
0.6669957625	proximal point method
0.6669399776	collective variables
0.6668778685	monitoring systems
0.6668702934	exploitation exploration
0.6668058925	statistical shape
0.6667359511	pre process
0.6667183571	higher precision
0.6666849280	observable markov decision process
0.6666828603	matrix completion problem
0.6665606312	dependence structures
0.6665570641	batch sgd
0.6665511356	dimensionality reduction techniques
0.6665266916	orthogonal decomposition
0.6665192583	self paced
0.6665062336	post processing step
0.6664823607	recent successes
0.6664506539	average degree
0.6664205208	auxiliary data
0.6664037423	software framework
0.6663732035	partially observable markov
0.6663724460	bayesian learning
0.6663550483	benchmark problems
0.6663510608	linear scaling
0.6663152812	one size fits
0.6662995562	careful design
0.6662676572	unlike existing
0.6662651940	long sequence
0.6662548490	automl systems
0.6662522076	graph mining
0.6662106934	robust classifier
0.6661865288	generation process
0.6661810410	meta classification
0.6661800213	univariate case
0.6661566764	noise corrupted
0.6661329182	stability condition
0.6661113121	output variables
0.6661034322	marginal distribution
0.6660965314	mean squared error
0.6660953494	data free
0.6660840109	labelled training data
0.6660180714	target specific
0.6659707966	accurately recover
0.6659425875	approximate stationary point
0.6659343860	sample covariance matrix
0.6659240003	model explanations
0.6659209706	differentiable programming
0.6659128822	image classification benchmarks
0.6659042495	random design
0.6658754929	infinite depth
0.6658528756	posterior uncertainty
0.6658320635	testing procedure
0.6658303598	state distribution
0.6657647724	optimization routine
0.6657507061	neural network quantization
0.6656618991	computer aided
0.6656568104	robust loss functions
0.6656506535	probabilistic interpretation
0.6656037899	sparse dictionary learning
0.6655903230	data driven approaches
0.6655605531	curvature information
0.6655527691	inference procedures
0.6654992252	risk function
0.6654598452	convolution kernel
0.6654509840	negative effect
0.6653995765	efficiently solve
0.6653695232	underlying reasons
0.6653647308	pseudo random
0.6653016824	classification technique
0.6653002899	robust policies
0.6652900382	block coordinate descent algorithm
0.6652569270	york times
0.6652510404	normal inverse
0.6652493495	based approach
0.6652409706	bias variance trade off
0.6652152762	machine learning paradigm
0.6652120423	policy making
0.6651640801	significantly increases
0.6651349770	augmentation methods
0.6651081451	network's parameters
0.6650704823	conditional risk
0.6650502424	larger networks
0.6650493956	neural network weights
0.6650487983	improves generalization
0.6650434682	cluster based
0.6650120954	svm classifier
0.6650079969	big data applications
0.6649596775	research question
0.6649463597	image classification datasets
0.6648902743	negligible loss
0.6648871293	trained classifier
0.6648867288	naturally modeled
0.6648856045	stl 10
0.6648671015	outcome prediction
0.6648282931	optimal transport distances
0.6647769429	action policy
0.6647746367	ilsvrc 2012
0.6647500291	local global
0.6647454147	data instances
0.6647381227	automatically extracts
0.6647256973	gradient approximation
0.6647135455	stability conditions
0.6647134800	search problem
0.6647074376	hierarchical bayesian model
0.6647073131	limited applicability
0.6646952595	framework named
0.6646385701	gaussian measurements
0.6646299245	test data
0.6646171769	arbitrarily close
0.6646001254	l bfgs
0.6645894245	task dependent
0.6645833535	algorithm called
0.6645741938	joint density
0.6645491210	echet inception
0.6645419603	graph datasets
0.6645419148	implicit assumptions
0.6645317155	previously collected
0.6645091631	adaptive dictionary
0.6644840726	binary decision
0.6644192529	word sense
0.6644151860	posterior samples
0.6644058995	recommendation performance
0.6644032181	malicious inputs
0.6643914955	positive results
0.6643095555	variance reduction techniques
0.6643034262	multiple clusterings
0.6642457849	common practice
0.6642418606	inter community
0.6641902777	discrete action space
0.6641786759	inherent complexity
0.6641713409	weighted networks
0.6641516406	kernel principal component analysis
0.6641098530	partially labeled data
0.6640389627	class means
0.6640234123	unknown parameters
0.6640173971	large margins
0.6639972635	fixed design
0.6639748598	carlo tree search
0.6639636218	mcmc algorithms
0.6639324278	dependency graph
0.6638871461	decision function
0.6638429863	riemannian stochastic
0.6638332133	subgradient methods
0.6638310911	low energy
0.6638153157	competing algorithms
0.6637994390	convex regularizer
0.6637978021	independent noise
0.6637372372	noise reduction
0.6637281483	small training set
0.6637236801	physiological data
0.6637082671	undirected graphical models
0.6636704076	network weights
0.6636686138	perturbed samples
0.6636672339	automatic recognition
0.6636570819	strong regularization
0.6636538107	missing observations
0.6636349102	continuous attributes
0.6636157332	bayesian neural network
0.6635993069	order derivatives
0.6635880984	black box classifiers
0.6635490012	nn based
0.6635428634	medical treatment
0.6635301113	deep autoencoders
0.6635263669	result suggests
0.6635028777	fitting term
0.6634545137	cluster wise
0.6634413479	involves solving
0.6634359256	previously learned tasks
0.6634330308	distributed inference
0.6634124781	category specific
0.6634064020	local smoothness
0.6634029327	data exploration
0.6634024441	based approaches
0.6633941813	test problems
0.6633157954	output vectors
0.6633061326	fixed length vector
0.6632951722	discriminative feature
0.6632164669	high dimensional inference
0.6631883071	selection methods
0.6631679915	based estimators
0.6631155607	object properties
0.6630733143	end user
0.6630512540	kernel canonical correlation analysis
0.6630426023	output gaussian processes
0.6630261459	spatiotemporal prediction
0.6630033858	safe exploration
0.6629794375	quasi polynomial
0.6629039563	big data sets
0.6628250430	interactive machine learning
0.6628223694	sentence classification
0.6628068848	benchmark tasks
0.6627868527	highly interpretable
0.6627850664	line of sight
0.6627667095	instance optimal
0.6627099755	results hold
0.6626875916	self concordant
0.6626370914	prediction problems
0.6625574980	dnn pruning
0.6625489196	limit theorems
0.6624879701	convergence property
0.6623738479	dwork et al
0.6623472403	rich environments
0.6623340560	federated optimization
0.6623122384	natural policy gradient
0.6623109847	fpga based
0.6623023083	state sequences
0.6622886750	jointly learn
0.6622833911	smooth component
0.6622322173	task allocation
0.6621983352	recursive algorithm
0.6621868120	learning task
0.6621671534	metric based meta learning
0.6621513464	sequencing data
0.6620722377	heterogeneous network
0.6620666274	sparse factor
0.6620594610	implemented efficiently
0.6620371020	induce sparsity
0.6620358987	physically based
0.6620254231	gibbs distribution
0.6620185666	paper presents
0.6620110592	item space
0.6619969373	practical performance
0.6619563265	lower computational cost
0.6619544423	stochastic noise
0.6618982547	requires fewer
0.6618941706	model aggregation
0.6618864103	binary patterns
0.6618738958	descent method
0.6618728652	learning based
0.6618682308	task aware
0.6618624633	generated speech
0.6618610111	multi penalty
0.6618199583	higher levels
0.6618024216	directly optimizing
0.6617828041	low error
0.6617716036	batch statistics
0.6617549043	substantially reduced
0.6617532772	approximation algorithm
0.6617399814	vanishing or exploding
0.6617225177	traffic control
0.6617119906	tasks involving
0.6617110788	transformation function
0.6616930260	ml research
0.6615479187	model family
0.6615471192	highly successful
0.6615305337	input distributions
0.6615035586	classical pca
0.6614810114	statistical computational
0.6614571668	statistical rates
0.6613937866	data owner
0.6613763249	class posterior
0.6613243422	simulated robotic
0.6613115432	reshef et al
0.6613029257	video understanding
0.6612860396	k fac
0.6612845676	classification problem
0.6612826608	convex formulation
0.6612087986	research field
0.6611764990	open data
0.6611713402	target user
0.6611472344	lasso estimation
0.6611224140	dependence structure
0.6610061877	mnist database
0.6610033624	world knowledge
0.6609975277	training regimes
0.6609500943	compression method
0.6609445336	randomized value functions
0.6609187081	activity detection
0.6609000833	empirical gains
0.6608555453	splitting methods
0.6608511437	domain adversarial training
0.6608024822	spectral clustering algorithms
0.6607629724	adaptive sensing
0.6607520762	robust sparse
0.6607170096	anomalous behavior
0.6607022813	similar objects
0.6606157422	embedding model
0.6606005906	extracted information
0.6605379541	event classification
0.6605219381	hyperparameter learning
0.6604722807	audio domain
0.6604668551	algorithm achieves
0.6604250874	generalized likelihood ratio
0.6604090213	optimal control problem
0.6603620545	exchangeable random
0.6603566045	group actions
0.6603019796	graph level
0.6602778174	unsupervised generative modeling
0.6602581573	naive implementation
0.6601832778	independent vector
0.6601492715	classification techniques
0.6601339571	hyperparameter free
0.6601177675	fixed dimension
0.6600902950	prediction problem
0.6600652728	greedy type
0.6600088664	achieves higher
0.6599433249	dramatically improve
0.6599354834	general conditions
0.6599273332	deep rnns
0.6599256083	meta learn
0.6598710221	control group
0.6598525204	gaussian process based
0.6598165632	mini batch gradient
0.6598123973	strong correlations
0.6597566527	arbitrary order
0.6597492368	dual problem
0.6597436234	population size
0.6596780666	bandit settings
0.6596654527	efficient search
0.6596297366	simple proof
0.6596001860	classification performance
0.6595543911	confidence estimates
0.6595148311	order reduction
0.6595124968	updating rule
0.6594818723	cost sensitive classification
0.6594698492	subsampling methods
0.6594546294	extensive numerical
0.6594267383	posterior estimation
0.6593973891	proxy variables
0.6593371017	nasbench 101
0.6593243865	design matrix
0.6593176925	valence and arousal
0.6593146769	day ahead
0.6592978146	core idea
0.6592445369	general loss functions
0.6592337721	key aspects
0.6592318038	topology design
0.6592256391	approximate posterior inference
0.6592227458	optimization technique
0.6592178594	response generation
0.6592093288	query set
0.6591421636	true positive
0.6591197571	batch normalization layers
0.6591139014	linear functionals
0.6589852097	climate data
0.6589463471	step wise
0.6589161231	statistically robust
0.6589048257	training loss
0.6588756845	improved performance
0.6588189003	prior probability
0.6587984853	autonomous agent
0.6587703934	model's accuracy
0.6587658512	state vector
0.6587547660	faster inference
0.6587299061	translation model
0.6587255105	convex regularization
0.6587160855	single images
0.6587115025	possibly nonlinear
0.6587059450	internal representation
0.6586400042	sample covariance
0.6585926390	area under roc
0.6585726650	preprocessing methods
0.6585636484	inverse rl
0.6585494815	optimal treatment
0.6585285285	u net
0.6585137165	entropy maximization
0.6584731005	symbolic knowledge
0.6584729871	increasing popularity
0.6584635756	complex data
0.6584634485	joint space
0.6584515616	supervised manner
0.6584438210	highly structured
0.6584245295	global sensitivity
0.6584151729	input signal
0.6584023328	large sized
0.6583043146	memory augmented neural
0.6583007329	projection step
0.6582934153	distributed gradient descent
0.6582773268	technical analysis
0.6582771149	variance reduced stochastic
0.6582594476	competitive results
0.6582283082	weakly submodular
0.6581835045	zero shot
0.6581776527	statistical estimators
0.6581703154	dependent dirichlet
0.6581153092	conjugate gradient algorithm
0.6581111651	significantly reducing
0.6580865865	cifar 10
0.6580679029	performance gain
0.6580425158	heterogeneous domains
0.6580391078	probability space
0.6580270580	structural equation models
0.6580141152	deep domain adaptation
0.6579910299	wide field
0.6579334120	sparsity regularization
0.6579012791	signal estimation
0.6577986989	dirichlet process mixture model
0.6577939357	conditional densities
0.6577698749	drl agent
0.6577516209	related domains
0.6577511809	user interaction
0.6577499092	complexity bound
0.6575643005	exponential mechanism
0.6575576220	discrete event
0.6575503694	generalization power
0.6575113685	recent literature
0.6574613179	invariant subspace
0.6574377457	crucial importance
0.6573902115	noise ratio
0.6573758721	human actions
0.6573694590	optimal transport theory
0.6573589067	bayes optimality
0.6573440220	distributed ml
0.6573359909	tensor operations
0.6573189673	state values
0.6573146655	function evaluation
0.6573094565	smaller datasets
0.6572707728	fair classifiers
0.6572431515	code generation
0.6572425825	paper investigates
0.6571852075	robustness against adversarial attacks
0.6571663593	variational bound
0.6571638664	clustering schemes
0.6571592546	normal data
0.6571412855	analysis shows
0.6571270610	predicted values
0.6570263962	frequency analysis
0.6570117337	diffusion network
0.6570092546	autoencoder network
0.6569916848	patient clinical
0.6569819083	adversarial discriminator
0.6569758738	original formulation
0.6569405139	consistency and asymptotic normality
0.6569337700	policy regret
0.6569034121	scientific literature
0.6568887728	open issues
0.6568444090	initial condition
0.6568206205	noisy gradients
0.6568079484	recurrent connections
0.6567914234	human engineered
0.6567723353	optimal price
0.6567684768	video analysis
0.6567611611	vision systems
0.6567540917	analysis suggests
0.6567271251	specifically tailored
0.6567215281	textual information
0.6567144365	gp priors
0.6566813998	machine learning problems
0.6566270830	key technical
0.6566259147	advanced machine learning
0.6566246534	substantially reduce
0.6565884209	semi random
0.6565787071	recommendation problem
0.6565747698	investigation shows
0.6564575650	computational graphs
0.6564376961	response regression
0.6564135239	world wide
0.6564123764	selection method
0.6564067721	source signals
0.6563896330	quantum systems
0.6563829439	exact gradients
0.6563819391	source samples
0.6563605834	pairwise learning
0.6563447273	individual variables
0.6563224959	empirically verify
0.6563037217	sparse data
0.6562880792	posterior densities
0.6562738747	cifar 100
0.6562399490	strongly convex optimization
0.6562306133	quantitative measure
0.6561809461	algorithm named
0.6561429544	transformed space
0.6561237150	observed data
0.6561198031	stochastic convex
0.6561166646	computed in closed form
0.6560882554	underlying graph
0.6560873278	significantly increase
0.6560839457	partial order
0.6560816109	competitive performance
0.6560618192	classical statistical
0.6560396943	bayes consistent
0.6559901837	tree graphs
0.6559894671	optimization step
0.6559819535	global local
0.6559648947	intelligent agent
0.6559617415	counterfactual predictions
0.6559067715	spatial features
0.6558662676	tight upper bound
0.6558404350	local rademacher complexity
0.6558203894	robust subspace
0.6557839360	second order cone
0.6557730022	automatic relevance
0.6557643948	player zero sum games
0.6557522416	hidden semi markov
0.6557245583	conditional gaussian
0.6557243594	edge density
0.6556522482	confidence set
0.6556296051	labeled source domain
0.6555763957	ranking based
0.6555473753	nonlinear pdes
0.6555359875	cluster level
0.6554852549	high resource
0.6554522593	polyak \ l ojasiewicz
0.6553490948	generator architecture
0.6553456698	agent learns
0.6553343748	input output relationship
0.6553272234	model calibration
0.6553040024	layer outputs
0.6553029817	arbitrary precision
0.6552908031	simulation data
0.6552837571	bayesian framework
0.6552815113	lower dimensional manifold
0.6552102753	privacy mechanism
0.6551993985	decision tree algorithms
0.6551956646	model size
0.6551209643	main finding
0.6551151510	functional alignment
0.6551020061	small loss
0.6550536054	policy optimisation
0.6550274369	prior experience
0.6549716812	image clustering
0.6549503548	variance based
0.6548449346	recently discovered
0.6548148234	robustness property
0.6547786577	synthetic samples
0.6547539636	achieved excellent
0.6547276745	word co occurrence
0.6547101716	traffic dynamics
0.6547010268	product space
0.6546909829	reward distribution
0.6546676250	multiple rounds
0.6546660331	deep kernel learning
0.6546430405	visual observations
0.6546405161	mitigating bias
0.6546209196	high rank
0.6545917400	relation networks
0.6545791644	conventional clustering
0.6545715828	belief propagation algorithm
0.6545456898	deep generative model
0.6545261253	pc algorithm
0.6545059464	selection strategy
0.6544024683	easy access
0.6543802061	dynamic ensemble
0.6543618946	neural program
0.6543523059	stochastic environments
0.6543465631	descent algorithms
0.6543399551	learning algorithm
0.6543027344	soft clustering
0.6542953250	aggregate data
0.6542941378	rank matrix completion
0.6542640336	fully exploited
0.6542584800	softmax cross entropy
0.6542346796	sensitive feature
0.6542189532	learning halfspaces
0.6541936893	regularized estimators
0.6541832826	transition kernel
0.6541686842	big data analysis
0.6541431204	estimation procedures
0.6540918928	hidden markov models
0.6540172939	bit compressed sensing
0.6539750400	generated sequence
0.6539509204	extreme case
0.6538938895	outperforms existing
0.6538821931	preserving transformations
0.6538796805	rnn architecture
0.6538656240	image based
0.6538305416	inherently difficult
0.6537468958	generalization performance
0.6536795733	rapidly changing
0.6536766809	completely unsupervised
0.6536520127	offline signature
0.6535437472	continuous time bayesian networks
0.6535186710	statistical problems
0.6535178767	physical constraints
0.6534621692	low risk
0.6534587239	shared representation
0.6534534806	empirically demonstrate
0.6534140546	latent factor model
0.6533978268	randomized block
0.6533463002	goal exploration
0.6533338664	matches or exceeds
0.6532999315	production systems
0.6532700510	model selection criteria
0.6532519938	multiple objectives
0.6532485554	experiments verify
0.6532224470	task adaptation
0.6532069407	end to end tts
0.6531710230	mean square error
0.6531085588	geometrical space
0.6531031337	squared errors
0.6530975661	~ \ citep
0.6530759677	impressive success
0.6530598843	conditions hold
0.6530142654	classical algorithms
0.6529742653	graph alignment
0.6529275814	estimating parameters
0.6529225551	ill conditioned
0.6528569936	motif based
0.6527900046	deep transfer learning
0.6527744539	paper describes
0.6527642440	deep learning algorithms
0.6527553909	degree polynomial
0.6527375230	early phase
0.6527096560	aerial vehicles
0.6526814814	weighted ensemble
0.6526800718	computing systems
0.6526651829	caltech 101
0.6526557680	potential functions
0.6526357847	label embedding
0.6526263895	fairness constraint
0.6525865362	missing completely at random
0.6525754739	fisher matrix
0.6525678436	global structure
0.6525014479	bound matches
0.6524620643	conjugate gradient method
0.6524493204	noisy label
0.6524421158	industry standard
0.6524409447	optimal allocation
0.6524212093	discrete sequences
0.6524164366	graph convolution networks
0.6523966219	neural machine
0.6523907717	standard practice
0.6523771898	local fl
0.6523131272	mikolov et al
0.6522797888	empirical distribution
0.6522663674	dimensional manifolds
0.6522555302	real world environments
0.6522439787	multi view subspace clustering
0.6522153707	imaging applications
0.6521913470	nearest neighbor classification
0.6520386108	driving data
0.6520339558	text representations
0.6519584530	early layers
0.6519531049	item embeddings
0.6519431244	detecting communities
0.6518941477	programming based
0.6518863081	coefficient vectors
0.6518859226	real world scenarios
0.6518727839	feasibility problem
0.6518258452	x ray
0.6517660444	automatic tuning
0.6517543869	unsolved problem
0.6517424002	gaussian process latent variable
0.6517156353	linear networks
0.6516613034	hard phase
0.6516102559	sequential pattern
0.6515924365	theoretical framework
0.6515728347	future state
0.6515604219	outcome variable
0.6514970739	stochastic heavy ball
0.6514963665	video classification
0.6514874084	discriminative representations
0.6514131022	random tree
0.6514062209	core component
0.6513886210	cumulative loss
0.6513863478	faster convergence rates
0.6513507172	imbalanced dataset
0.6513316034	classifier ensembles
0.6513096185	embedding techniques
0.6512729624	optimization objective
0.6512596921	estimation accuracy
0.6512382647	linear layers
0.6512319261	edge prediction
0.6512219280	markov decision problems
0.6511702090	questions remain
0.6511527044	relational networks
0.6511352997	lorenz 96
0.6511331292	sequence model
0.6511116880	based feature selection
0.6510736471	labeled graphs
0.6510569594	missing not at random
0.6509456702	generating distribution
0.6509064266	sparse component
0.6508978226	compressed data
0.6508781204	noise covariance
0.6508704833	sample path
0.6508538463	large amounts
0.6508410600	connection probabilities
0.6507979714	data modalities
0.6507978789	parameter initialization
0.6507385485	actor critic reinforcement learning
0.6507041281	reward free
0.6507010238	users items
0.6506974880	attention modules
0.6506852495	symmetric matrices
0.6506647761	em algorithms
0.6505995179	prediction model
0.6505984575	augmentation policy
0.6505389104	deep q learning
0.6505359605	compression based
0.6505306565	target classifier
0.6505115388	input graphs
0.6505047999	adversarial accuracy
0.6504935346	membership stochastic blockmodel
0.6504903896	sparse matrix factorization
0.6504706005	multi sample
0.6504605881	sparse support
0.6504553777	jointly optimizing
0.6504427696	annotated images
0.6504143259	bi convex
0.6503914038	input sequences
0.6503620017	learning disentangled representations
0.6503485925	achieve competitive results
0.6503450717	text to speech
0.6503441148	data augmentation strategy
0.6502905643	shapley value
0.6502404559	speech samples
0.6502018399	initialization strategies
0.6501828617	software tools
0.6501535870	input transformation
0.6501214608	demographic information
0.6500953188	shedding light
0.6500861801	bn layers
0.6500804710	missing variables
0.6500365123	sensing matrices
0.6500080012	constrained space
0.6500072646	cross validation procedure
0.6499513951	detection performance
0.6499159706	momentum term
0.6499136318	multi response
0.6498570874	sparse reward tasks
0.6498078132	laplacian regularized
0.6497884409	result extends
0.6497578191	conventional approaches
0.6497575317	constrained minimization
0.6497522777	regression problem
0.6497393605	selection process
0.6497280686	commonly studied
0.6497119326	long horizon tasks
0.6497065019	similarity graphs
0.6496979644	data protection
0.6496695580	long term rewards
0.6496527949	recent findings
0.6495581597	exact gradient
0.6495069795	online health
0.6494622589	ill posed inverse problems
0.6494363990	remarkable performance
0.6494254132	accuracy predictor
0.6494253476	discrete actions
0.6493836639	latent state space
0.6493577300	linear relationship
0.6493437039	optimal performance
0.6493282218	weakly labeled data
0.6493180328	magnitude faster
0.6492856465	output sequence
0.6492855814	private sgd
0.6492747137	linear dimensionality reduction
0.6491586736	look ahead
0.6491224648	stochastic settings
0.6491160885	scale linearly
0.6490652112	alternative approaches
0.6490353161	asynchronous stochastic
0.6489508069	rigorous guarantees
0.6489429333	stationary distributions
0.6488904984	discriminative information
0.6488861600	training paradigm
0.6488852313	possibly overlapping
0.6488225663	surrogate functions
0.6488079990	local solutions
0.6487989121	shape parameter
0.6486800497	categorical distribution
0.6486772113	regression methods
0.6486585064	noise removal
0.6486512289	high demand
0.6486146046	hierarchical attention
0.6486081094	model extraction attacks
0.6485983423	multiple graphs
0.6485967661	multi agent rl
0.6485730072	final output
0.6485639372	article presents
0.6484967052	modern deep neural networks
0.6484495665	scalable gps
0.6484210362	dramatically reducing
0.6484195556	detailed theoretical analysis
0.6483980682	accurately estimating
0.6483952011	training images
0.6483545691	test loss
0.6482888377	search queries
0.6482569363	observed covariates
0.6482174321	quantum many body
0.6481895707	pca based
0.6481620881	gradient codes
0.6481611864	high dimensional inputs
0.6481599224	stochastic binary
0.6481459337	training strategies
0.6481392867	field aware
0.6481272312	learn faster
0.6480717549	highly optimized
0.6480381067	detection systems
0.6480370859	degrees of freedom
0.6480275018	equivariant neural networks
0.6479996892	entropy estimation
0.6479635668	expected squared
0.6479280282	mathematical properties
0.6478269916	model based reinforcement
0.6478261390	single model
0.6478064591	reduced set
0.6477924214	conditional generative adversarial
0.6477888585	fake data
0.6477689230	digits dataset
0.6477685844	recovering sparse
0.6477561819	local structure
0.6477338379	class separation
0.6477086047	extra computation
0.6476779727	neurips 2019
0.6476583018	spectral method
0.6476432192	sensor signals
0.6476077938	local maximum
0.6475840172	local differential
0.6474994202	protein function
0.6474463383	greedy approximation
0.6473168761	audio event
0.6472712212	directions for future research
0.6472511167	lasso type estimators
0.6472373151	human and machine
0.6472115314	state dynamics
0.6472013722	matrix inverse
0.6471607108	achieves competitive
0.6471546215	additional information
0.6471199018	traditional rl
0.6471150052	existing methods
0.6471024276	gradient descent method
0.6470796022	class structure
0.6470783472	critical bottleneck
0.6470580329	accuracy gains
0.6470549374	high level concepts
0.6470257796	input data
0.6470188940	vision datasets
0.6470168882	multi manifold
0.6469966827	final performance
0.6469587873	challenging tasks
0.6469535426	previous proposals
0.6469210457	small training sets
0.6467768872	knowledge extraction
0.6467320364	fw algorithm
0.6466771520	ot problem
0.6466657146	clustering approaches
0.6466628939	robustness against adversarial examples
0.6466317280	experiments reveal
0.6466283573	order preserving
0.6465951355	consistently improve
0.6465921826	output activation
0.6465682224	high level features
0.6465639287	kurdyka \ l ojasiewicz
0.6465534446	automatic sleep
0.6465190548	deep reinforcement learning agents
0.6464766554	main aim
0.6464397513	asymptotic regret
0.6463941049	predictive state
0.6463731701	ecg data
0.6463475726	mean absolute error
0.6462972662	low rank modeling
0.6462890952	claims data
0.6462770476	data valuation
0.6462599686	networked data
0.6462078417	reported results
0.6462044985	step function
0.6461847099	data arrives
0.6461827224	context vector
0.6461731949	off policy policy evaluation
0.6461498524	absolute percentage
0.6461300619	large batch size
0.6461232124	submodular set
0.6461077281	low rank assumption
0.6460993994	manifold based
0.6460916545	user actions
0.6460530475	attack scenarios
0.6460026371	scalable algorithms
0.6459528441	small clusters
0.6459366756	bag of words
0.6458967960	k nearest neighbours
0.6458854468	reduced dimension
0.6458783827	penalty parameters
0.6458499976	factorization model
0.6458422577	sparse optimization
0.6458247870	achieve competitive
0.6457983381	simple modifications
0.6457340160	superior empirical performance
0.6457173689	automatic machine learning
0.6456771831	traditional machine learning
0.6456642258	dense network
0.6456618968	key contribution
0.6456548980	sparse principal components
0.6456441889	log data
0.6456129811	increasingly popular
0.6456054835	multi omics data
0.6456045249	binary neural networks
0.6455830223	sensor measurements
0.6455459161	large state spaces
0.6455042143	semidefinite matrix
0.6454476754	detection accuracy
0.6454412366	successful approaches
0.6454001895	dynamic environment
0.6453726123	excellent predictive
0.6453655649	easily integrated
0.6453539078	network based
0.6453437504	core challenge
0.6453405652	fair decisions
0.6453404782	target localization
0.6453340520	variable size
0.6452808550	sampling techniques
0.6452731209	critic network
0.6452505542	hierarchical priors
0.6452319364	baseline approaches
0.6452257266	evaluation cost
0.6452252401	identification task
0.6451658939	categorical distributions
0.6451539584	previous methods
0.6451325765	motor learning
0.6450363485	semi metric
0.6450335441	fully connected neural networks
0.6450131485	increasing attention
0.6450050022	market data
0.6449178491	high end
0.6449120176	basis vectors
0.6448911996	node embedding methods
0.6448485706	learning rate tuning
0.6448256551	hundreds or thousands
0.6448192772	main findings
0.6448015054	selection procedure
0.6447777595	multi agent settings
0.6447548441	text embedding
0.6447278187	supervised tasks
0.6446737528	signals recorded
0.6446284368	target values
0.6445667358	individual differences
0.6445203240	admm algorithm
0.6444904570	worst case regret
0.6444727831	coordinate update
0.6444682057	model classes
0.6444071468	nonlinear embeddings
0.6444000218	logarithmic terms
0.6443660831	pre treatment
0.6443420735	classification datasets
0.6443364871	robust recovery
0.6443060208	local optimality
0.6442972854	segmentation performance
0.6442965837	classification model
0.6442925008	estimation problem
0.6442904583	supervised learning algorithms
0.6442900866	music information
0.6442611607	squares regression
0.6442528642	binary vector
0.6442180606	connected graph
0.6442151445	paper examines
0.6442087238	spatial scales
0.6441333048	call detail records
0.6440836543	regularization effect
0.6440221288	fundamental question
0.6440083989	extremely high dimensional
0.6439731284	location aware
0.6439722264	standard supervised learning
0.6439431368	visual classification
0.6439422736	partial label
0.6439286188	magnetic resonance image
0.6438692051	training procedures
0.6438310012	empirical variance
0.6438180033	training stages
0.6437770353	probabilistic modelling
0.6437481811	image level
0.6436601721	regularized kernel
0.6436466919	nonparametric estimation
0.6436131290	analytical results
0.6436041521	favorable performance
0.6434742554	post process
0.6434674621	real datasets
0.6434290795	aerial vehicle
0.6433636711	visual information
0.6433543008	gaussian inputs
0.6433438325	learned policies
0.6433361292	multiple classes
0.6432953529	past tasks
0.6432927246	confidence levels
0.6432220842	hessian vector
0.6432166587	powerful tool
0.6431664812	based algorithms
0.6431154368	nesterov's method
0.6430789752	scale mixture
0.6430633160	accelerate convergence
0.6430486463	maximizing mutual information
0.6430074510	random graph model
0.6429436711	nonconvex loss functions
0.6428869275	communication efficient federated learning
0.6428770516	data preparation
0.6427971350	robust svm
0.6426735791	robust principal
0.6426731125	separable data
0.6426707089	multiple users
0.6426030792	latent embedding
0.6425708681	convex loss function
0.6425585584	multi valued
0.6425449569	ml applications
0.6425365407	short term and long term
0.6425311893	labelled examples
0.6425274129	jin et al
0.6425247542	local search algorithms
0.6424500643	supervised machine
0.6424097411	order optimal regret
0.6423703391	scalable variational inference
0.6423692533	parallel inference
0.6423489961	nonlinear manifold
0.6423231958	supervised methods
0.6423207832	results highlight
0.6422652689	latent domain
0.6422014608	open online courses
0.6421928323	clustering accuracy
0.6421775401	model specification
0.6421577581	geometric framework
0.6421414905	short note
0.6421387940	recurrent layer
0.6421153338	first order logic
0.6420860691	binary case
0.6420826157	mining methods
0.6420654882	clinical variables
0.6420554908	scaling factors
0.6420493331	human level performance
0.6420451317	training process
0.6420304296	model's predictions
0.6419913896	actively learning
0.6419901262	dual objective
0.6419686688	prediction with expert advice
0.6419196583	explicit formula
0.6419132324	sequential patterns
0.6418701323	kernel two sample test
0.6418601738	iterative process
0.6418520064	classification methods
0.6418490229	predicting drug
0.6417823121	labeled graph
0.6417379341	single bit
0.6417211907	increasingly important
0.6416658175	complex behaviors
0.6416640219	empirically validated
0.6416449723	convex combination
0.6416323636	transfer operators
0.6415804250	output neurons
0.6415288420	second price auctions
0.6414264487	local regions
0.6414145723	data quality
0.6413910584	refined analysis
0.6413656724	approach outperforms
0.6413403676	gnn architectures
0.6413371527	interactive learning
0.6413255654	minimal impact
0.6413211289	distributed stochastic
0.6412856813	partial observation
0.6412592451	model retraining
0.6412113542	measure theoretic
0.6412034795	exact bayesian
0.6411943595	significant benefits
0.6411894974	electronic health record data
0.6411880509	sparse and low rank
0.6411482197	adversarial sample
0.6411432930	power efficient
0.6410961733	predefined set
0.6410705011	orders of magnitude speedup
0.6410369016	local graph clustering
0.6410300368	optimisation methods
0.6410232745	model outperforms
0.6410094911	low dimensionality
0.6409810959	potential applications
0.6409265124	easily detected
0.6409100166	systematically evaluate
0.6408601546	next generation sequencing
0.6408594639	perform extensive
0.6408356569	segmentation methods
0.6407862029	open source python package
0.6407491323	learned policy
0.6407384353	single machine
0.6407235325	squared error loss
0.6407197068	study shows
0.6406879423	provide evidence
0.6406848224	rl based
0.6406335308	impressive empirical
0.6406207169	model agnostic meta
0.6406207131	conditional inference
0.6405720392	comprehensive experimental results
0.6405629017	original graph
0.6404814361	jointly gaussian
0.6404327853	source tasks
0.6403705976	qualitative evaluation
0.6403655862	biological mechanisms
0.6403377958	forward model
0.6403375311	intrinsic robustness
0.6403110682	sampling step
0.6403046625	bayes classifiers
0.6402980573	neighbor search
0.6402612393	communication compression
0.6402478072	image data sets
0.6402021794	information theoretic perspective
0.6401975972	graphical structures
0.6401544775	channel eeg
0.6401329085	greedy strategy
0.6401001579	input patterns
0.6400928157	class includes
0.6399845450	existing algorithms
0.6399124461	attracted much attention
0.6398363517	information theoretic lower bound
0.6398180402	high correlation
0.6397960212	commerce search
0.6397656452	data samples
0.6397433465	internal covariate
0.6397349266	safe policy
0.6397065104	input domain
0.6396875135	fair regression
0.6396680785	decomposition based
0.6396645013	maximum likelihood estimates
0.6396636660	price forecasting
0.6396631923	sample variance
0.6396519324	net architecture
0.6396144388	selection scheme
0.6396118244	joint model
0.6395943712	poor quality
0.6395525729	current methods
0.6395474177	online pca
0.6395000000	image to image translation
0.6394977560	sparse mixture
0.6394916951	denial of service
0.6394868507	similarity matrices
0.6394452570	point cloud data
0.6394410843	improved convergence
0.6394269254	fully exploit
0.6394127974	applications include
0.6393599099	tighter upper
0.6393505955	generated molecules
0.6393102084	cross validation procedures
0.6392731205	highly variable
0.6392256597	additional cost
0.6391710141	major bottleneck
0.6391303966	automatically determines
0.6391189379	regularization scheme
0.6391137092	drl algorithms
0.6390933380	class priors
0.6390656169	embedding method
0.6390618827	model performs
0.6390250791	multiple datasets
0.6390223840	causal factors
0.6390173910	double sampling
0.6389989577	training stability
0.6389495775	stochastic algorithms
0.6389134148	classical approaches
0.6388981147	spatial correlations
0.6388819818	maximum relevance
0.6388502484	negative binomial process
0.6388341695	discrete variable
0.6387965941	ensemble prediction
0.6386479727	typically require
0.6386428494	tree decomposition
0.6385769987	large scale visual
0.6385483278	expert behavior
0.6385273983	significantly decrease
0.6385238019	experiments suggest
0.6385164264	inference algorithms
0.6385008833	hypothesis spaces
0.6384405046	classification loss
0.6384296988	parallel mcmc
0.6383885807	total cost
0.6383736243	target risk
0.6383359219	network flow
0.6383028258	numerous applications
0.6382874869	gaussian likelihood
0.6382732494	image resolution
0.6382722484	meta trained
0.6382663036	oil and gas
0.6382591279	adversarial generation
0.6382222579	brain structures
0.6381532480	gan generator
0.6381415186	patient population
0.6381324259	score test
0.6380967578	population distribution
0.6380474506	least squares
0.6380265652	reward feedback
0.6380255784	interpretable explanations
0.6380178122	black box adversarial
0.6380093703	bandit framework
0.6380058403	theoretical contribution
0.6379733192	gaussian assumption
0.6379562692	ai agents
0.6379301892	gradient direction
0.6379256888	inner product
0.6379115091	experimental settings
0.6378964925	local update
0.6378333905	privacy risk
0.6378310409	graph networks
0.6377736486	dense graphs
0.6377703607	clustering analysis
0.6377473533	high degree
0.6376679601	pre trained embeddings
0.6376550956	provide empirical evidence
0.6376336452	fewer samples
0.6375654407	theoretical gap
0.6375649184	explicit bounds
0.6375488117	dependent random
0.6375072786	extremely successful
0.6374842513	unknown parameter
0.6374440670	gp model
0.6374418112	transferable representations
0.6374367550	high efficiency
0.6373584878	transferable features
0.6373172880	factorization rank
0.6373141976	noise sources
0.6373001959	comparative experiments
0.6372838609	joint clustering
0.6372827840	chen et al
0.6372676737	varying length
0.6372545159	observed context
0.6372035333	deterministic policies
0.6371733852	row and column
0.6371678039	log posterior
0.6370924362	search procedures
0.6370708107	unrestricted adversarial
0.6370064150	independent subspaces
0.6369907208	classifier outputs
0.6369593981	neural style transfer
0.6369527143	task performance
0.6368432907	directed information
0.6368258515	fully convolutional neural networks
0.6368112723	applying machine learning
0.6367377101	knowledge gradient
0.6367063199	white box and black box
0.6366947340	single precision
0.6366922272	efficient global optimization
0.6366869772	vector based
0.6366785671	consistency loss
0.6365749911	reward learning
0.6365721161	variance estimation
0.6365709327	ratio test
0.6365485800	problem specific
0.6365257308	maximal information
0.6364425226	achieve comparable
0.6364246172	bayesian predictive
0.6363980996	pooling methods
0.6363947937	learned weights
0.6363360679	capture long term dependencies
0.6362949212	nonlinear function
0.6362573987	consistency analysis
0.6362463047	symmetric tensor
0.6361853296	widely deployed
0.6361756838	standard vae
0.6361746676	hardware resources
0.6361677106	robust ranking
0.6361148382	molecular systems
0.6360809939	vae gan
0.6360701717	automatically learns
0.6359754843	normalization technique
0.6359525003	local structures
0.6358520147	support tensor
0.6358431263	highly informative
0.6358376002	dimensional linear subspace
0.6358045367	based clustering
0.6357847424	estimation method
0.6356891536	block sparsity
0.6356380537	feedback graphs
0.6356133953	device training
0.6355995864	stream based
0.6355891921	neural activities
0.6355774044	finite data
0.6355757322	efficient training
0.6355730990	original data
0.6355652824	modern machine
0.6355539439	nonparametric clustering
0.6355537758	parts based
0.6355234415	theoretical understanding
0.6355171527	research communities
0.6355098747	deep learning applications
0.6355074395	interesting properties
0.6354764057	valued functions
0.6354730345	deep graph
0.6354704903	based recommender systems
0.6354305426	state representation learning
0.6354236926	model agnostic explanations
0.6354139256	missing at random
0.6354122616	sampling without replacement
0.6354092934	distributed deep learning
0.6353909678	test performance
0.6353758195	evaluation measure
0.6353137149	rnn architectures
0.6352872656	hard constraints
0.6352581731	popular benchmarks
0.6352575853	distributions differ
0.6352375543	latent code
0.6352227492	provide guidelines
0.6352193646	existing baselines
0.6350884736	network parameters
0.6350426726	individual instances
0.6350302854	industrial systems
0.6350289423	informative representations
0.6349979512	inverse dynamics model
0.6349954437	successfully detect
0.6349603575	unsupervised anomaly
0.6349218217	development process
0.6349190906	spectral kernels
0.6348666514	rapid growth
0.6348587931	ranking scores
0.6348233972	capacity constraints
0.6347949979	paper develops
0.6347890951	previously considered
0.6347762065	reduce bias
0.6347733438	risk factor
0.6347437678	purely random
0.6347267918	batch learning
0.6347151973	inference task
0.6346948917	interior point method
0.6346921483	off policy evaluation
0.6346493291	network intrusion
0.6346175895	achieves competitive performance
0.6345789680	type inference
0.6345786125	cold start problem
0.6345543360	black box function
0.6345373589	np hard problem
0.6345160096	supervised classifiers
0.6344583069	numerical weather
0.6343781201	probabilistic principal component analysis
0.6343734884	accurate prediction
0.6343733085	method produces
0.6343715018	meta learns
0.6343317753	semi nonnegative
0.6343021251	negative effects
0.6342999188	provable algorithms
0.6342990740	low data regime
0.6342827870	online courses
0.6342767725	speech recognition systems
0.6342504488	classifier selection
0.6341473785	audio source
0.6341350929	positive rate
0.6341339642	easily computed
0.6340054340	strong privacy
0.6339975890	low dimensional structure
0.6339824011	fast convergence rates
0.6339427977	human driven
0.6338727251	central component
0.6338645239	link structure
0.6338386917	supervised deep learning
0.6338236958	bayesian dirichlet
0.6338109151	temporal graph
0.6337854334	epistemic and aleatoric
0.6337778412	quantitative comparison
0.6337273647	asymptotic lower bound
0.6336997172	neighborhood information
0.6336973106	approximate message
0.6336949587	complex dynamical
0.6336410139	correlated data
0.6336321835	human imperceptible
0.6335666990	public domain
0.6335461339	baseline policy
0.6335444239	maximum loss
0.6334776247	automatically generate
0.6334567696	orders of magnitude faster
0.6334506738	meta learning algorithms
0.6334277483	outperform existing
0.6334188007	single scale
0.6333560020	practical algorithms
0.6333307097	theoretical proof
0.6333121161	sparse modeling
0.6332980415	variational auto
0.6332840050	additive gaussian
0.6332287022	two sample testing
0.6332112414	neuroimaging datasets
0.6332080539	fmri dataset
0.6331551453	user embedding
0.6331306035	probability metrics
0.6331080754	successfully deployed
0.6330945244	restaurant process
0.6330902343	inference accuracy
0.6330376090	composite functions
0.6330325573	polynomial complexity
0.6330121667	protection regulation
0.6329840930	ensemble clustering
0.6329688493	performance improvements
0.6329683695	considerably faster
0.6329489503	nonlinear activation functions
0.6329461922	bandwidth parameter
0.6329157631	score functions
0.6328816657	scene graph
0.6328801025	optimization scheme
0.6328785716	sample correlations
0.6328626162	pruning rate
0.6328306917	rate control
0.6328130032	varying sizes
0.6327868776	wang et al
0.6327656036	electronic structure
0.6327414990	theoretic criterion
0.6327301998	imbalance problem
0.6327183263	geometric structure
0.6327071949	continuous variable
0.6326395295	brain graphs
0.6326356776	learning strategies
0.6326153413	embedding algorithms
0.6326074449	conditional gradient method
0.6324741887	mini batch gradient descent
0.6324567930	empirical findings
0.6324353925	optimal hyperparameters
0.6324314440	~ \ citet
0.6324203557	calibrated prediction
0.6324201592	independent variables
0.6324013466	challenges involved
0.6323812524	screening method
0.6323787914	annotated training data
0.6323558888	linear support vector machine
0.6323450536	main reasons
0.6323071808	bayesian network structure
0.6322965788	highly dimensional
0.6322892023	directly optimize
0.6322577880	label free
0.6322378024	general framework
0.6322221885	learned dynamics
0.6321971551	memory size
0.6321563210	main challenge
0.6321449121	theoretical studies
0.6321008766	feature information
0.6320623644	classical theory
0.6320333053	close connection
0.6319322836	product distribution
0.6319080082	environmental data
0.6318773962	mcmc inference
0.6318589778	based methods
0.6318565766	smooth signals
0.6318364312	posterior density
0.6318284970	ml estimator
0.6318154094	wireless network
0.6318067087	explicit expression
0.6318044225	corrupted labels
0.6317665255	data programming
0.6317182559	facial features
0.6317138653	regression functions
0.6317134348	knowledge driven
0.6316929679	complexity bounds
0.6316902722	deep learning methods
0.6316636427	typically assume
0.6316334021	vector representation
0.6316127616	commonly encountered
0.6315774126	drug disease
0.6315674419	kernel approximations
0.6315390819	directly estimating
0.6315299430	clean validation
0.6315024930	selection problems
0.6314904790	low dimensional embeddings
0.6314317343	low resolution images
0.6314069019	data poisoning attack
0.6313577829	multiview learning
0.6313006248	normal examples
0.6312933808	motion capture data
0.6312828623	achieve competitive performance
0.6312519097	explanation method
0.6311050199	recovery problems
0.6311026574	learning procedures
0.6310579736	bits back
0.6309734602	probabilistic perspective
0.6309702558	theoretical aspects
0.6309023467	information processing systems
0.6308632518	recommendation problems
0.6308018682	simulated datasets
0.6308014012	block diagonal structure
0.6307469212	share common
0.6307055820	deep learning architecture
0.6307022750	experimental results demonstrate
0.6306528152	hierarchical modeling
0.6306237118	learning compact
0.6306180457	adaptive adversary
0.6306131100	covariate information
0.6306078412	minimum degree
0.6305977745	control design
0.6305707416	efficiency bound
0.6305702773	estimating equations
0.6305388737	adjacency spectral
0.6305241628	based defense
0.6305072773	local patterns
0.6305018383	back propagation
0.6304991771	defending against
0.6304900014	object instances
0.6304749682	increased robustness
0.6304579974	theoretical works
0.6304564844	based explanations
0.6304400779	training algorithm
0.6304355748	learning problems
0.6304335398	training neural networks
0.6304333950	agent interacts
0.6304195957	stationary processes
0.6303886692	posterior belief
0.6303786919	influence estimation
0.6303683057	heterogeneous treatment
0.6303273139	target measure
0.6302898415	accurately capture
0.6302870564	domain adaptation methods
0.6302798514	significantly smaller
0.6302730270	text dependent speaker
0.6302246921	resource requirements
0.6301924721	substantially higher
0.6301822021	low computational cost
0.6301644014	hierarchical forecasting
0.6301304334	probabilistic generative
0.6301201208	energy based model
0.6300643181	dynamic memory
0.6300361905	provably accurate
0.6299688216	competitive accuracy
0.6299676020	model outputs
0.6299668316	practical scenarios
0.6299606148	industrial datasets
0.6299443297	signal to distortion ratio
0.6299422218	output layers
0.6299236249	feasible solutions
0.6298868423	bayes posterior
0.6298867421	open source code
0.6298848192	generation quality
0.6298620479	smoothness parameter
0.6298214497	probability matrix
0.6298123391	mri data
0.6297651121	discriminative training
0.6297344261	specifically designed
0.6297233918	deep recurrent neural networks
0.6296893712	dramatically improves
0.6296765925	synthetic data sets
0.6296135905	predicting outcomes
0.6295850356	efficiently implemented
0.6295790765	exact line
0.6295184439	direct access
0.6294870803	additional data
0.6294832051	true support
0.6294718784	modeling assumptions
0.6294130441	scoring method
0.6293405766	neural network layers
0.6293045738	data generating
0.6292986328	gp approximations
0.6292747904	decentralized sgd
0.6292510325	property holds
0.6292337670	discrete representations
0.6292293970	step ahead
0.6292293347	online social
0.6291034070	conditional mutual
0.6290953717	infinite width limit
0.6290891751	single lead
0.6290470871	variance reduction methods
0.6290224953	physical quantities
0.6290062345	compressed network
0.6289960026	approximation technique
0.6289726345	federated learning framework
0.6289525687	bias free
0.6289413112	based bci
0.6289349534	traditional algorithms
0.6288916057	deep auto encoder
0.6288844631	decentralized stochastic
0.6288734868	originally designed
0.6288718663	langevin algorithms
0.6288247365	standard pca
0.6287295077	numerical experiment
0.6287229878	error estimation
0.6287212541	disease related
0.6287174731	polypharmacy side
0.6286777352	nystrom method
0.6286282022	input points
0.6285768472	contextual bandit algorithm
0.6285740045	linear transforms
0.6285131782	connected network
0.6284955089	small sized
0.6284952864	tree induction
0.6284908087	deep learning techniques
0.6284878309	monte carlo estimation
0.6284863003	experiments conducted
0.6284720783	article proposes
0.6284122256	long term prediction
0.6283928631	unbiased gradient
0.6282915531	involves training
0.6282457697	synthetic networks
0.6282349510	potentially sensitive
0.6282012828	gradient update
0.6281947683	ideal case
0.6281035540	heterogeneous sources
0.6280862480	empirical data
0.6280627571	noisy channel
0.6280598574	efficient algorithm
0.6280143213	nominal data
0.6280109045	information density
0.6279959598	temporal attention
0.6279765619	semi supervised settings
0.6279761880	law of large numbers
0.6279537865	inferring missing
0.6279473675	error probability
0.6279442396	carlo sampling
0.6278885379	single gpu
0.6278862925	inter task
0.6278471011	implicitly assume
0.6278253801	simultaneously learns
0.6277525604	uncertainty set
0.6277515029	structured representations
0.6277173580	wall clock time
0.6276441894	gaussian process classifier
0.6276322433	real word
0.6276315078	streaming setting
0.6276297295	real life applications
0.6276162922	mis classification
0.6276031608	precisely characterize
0.6275990936	estimating uncertainty
0.6275627042	transformed data
0.6275424667	labeled datasets
0.6275127558	independently trained
0.6274206471	giving rise
0.6274145653	online streaming
0.6273634801	human face
0.6273532714	complex interactions
0.6273444482	greedy methods
0.6273166051	unsupervised feature
0.6272700332	experimentally evaluate
0.6272626868	computational graph
0.6272344173	highly relevant
0.6271909591	future behavior
0.6271628060	current techniques
0.6271619299	vision based robotic
0.6271580967	algorithm finds
0.6271518111	reduction methods
0.6271155924	performance assessment
0.6271001659	test image
0.6270878001	material design
0.6270525867	low rank representations
0.6270293691	corrupted samples
0.6270175431	noisy signals
0.6270149826	recursive least squares
0.6270044060	data access
0.6269546718	meta train
0.6269216723	intermediate results
0.6269162546	independently and identically distributed
0.6268877658	gene network
0.6267739032	real world robotic
0.6267617883	tree building
0.6267405228	image acquisition
0.6267347668	10 fold cross validation
0.6267274516	computing platform
0.6266543974	algorithm design
0.6266418861	simulation experiments
0.6266202726	making decisions
0.6266075303	mass spectrometry data
0.6266057796	global ranking
0.6266032173	network dynamics
0.6265995147	bit error
0.6265709646	robust estimators
0.6265547953	adaptive regret
0.6264327659	latent communities
0.6264062936	empirical rademacher
0.6263809041	traditional approaches
0.6263516221	feature selection techniques
0.6263448592	block based
0.6263254904	path based
0.6262560948	spatial structure
0.6262485971	entropy term
0.6262320892	periodic patterns
0.6262046401	nonconvex stochastic
0.6261963426	relaxation based
0.6261939408	multi component
0.6261931699	binary symmetric
0.6261795230	audio data
0.6261658068	low dimensions
0.6261244935	confidence based
0.6261209064	parameter budget
0.6259809614	random coordinate
0.6259106926	training deep networks
0.6258929579	multi view data
0.6258399946	mining tasks
0.6258393338	estimation errors
0.6258012682	measurement matrices
0.6257861373	aggregation rule
0.6257737339	noisy labeled
0.6257617043	mobility data
0.6257535688	large population
0.6257188940	parameter efficient
0.6256797943	state action values
0.6256726691	unsupervised deep learning
0.6256653102	multiple play
0.6256586663	experiments demonstrate
0.6255854584	cell rna sequencing
0.6255289913	industry and academia
0.6255277291	word vector
0.6255067951	extensive numerical studies
0.6255007642	rich observations
0.6254822232	generalisation performance
0.6254543714	interpolation network
0.6254297371	robotic manipulation tasks
0.6254239471	performance drop
0.6252809278	conventional methods
0.6251820663	inference problem
0.6251778691	resnet 101
0.6251460515	comparable performances
0.6251351489	stream classification
0.6251057331	smooth and strongly convex
0.6249979113	additional constraints
0.6249784658	extensive research
0.6249778211	distributed representations
0.6249697874	previous literature
0.6249370458	optimization literature
0.6249245333	causal network
0.6248796055	multinomial logit model
0.6248717770	least square
0.6248657041	formally prove
0.6248446192	inner loop
0.6247948983	word distributions
0.6247748353	low computational complexity
0.6247451505	realistic scenario
0.6247079345	rl research
0.6246985830	human supervision
0.6246794862	previously observed
0.6246635554	rkhs norm
0.6246634457	real world systems
0.6246594124	lenet 5
0.6246292187	two sample tests
0.6246186682	trained neural networks
0.6246054571	univariate time series
0.6246029855	conditioned policy
0.6245990083	automatically selects
0.6245632308	soft thresholding algorithm
0.6244667966	celeba dataset
0.6244628676	local learning rules
0.6244592391	position information
0.6244575149	real world problems
0.6244533219	interpolation methods
0.6244516313	nonlinear pca
0.6244359208	language modeling tasks
0.6244256721	mobile phone data
0.6243757167	lasso problem
0.6243471876	predictive inference
0.6243451915	hybrid method
0.6243120104	global model
0.6242279910	fast convergence rate
0.6241496205	riemannian gradient
0.6241295297	model performance
0.6240739974	policy classes
0.6240685657	achieves excellent
0.6240535553	annotated datasets
0.6240403646	ml methods
0.6240265828	realistic scenarios
0.6240028738	long term and short term
0.6239369019	pruning process
0.6239297050	fairness guarantees
0.6238647185	type algorithm
0.6238555510	dnn compression
0.6238197878	important role
0.6238032042	quadratic complexity
0.6238010395	two layer relu
0.6237975979	significant gap
0.6237934592	stochastic minimization
0.6237826994	coordinate descent algorithms
0.6237305610	invariant distribution
0.6236761812	online bandit
0.6236580940	desirable characteristics
0.6236464883	prediction scores
0.6235821606	user trust
0.6235669173	parallel stochastic gradient descent
0.6235658665	binary classification problems
0.6235238289	selection procedures
0.6235199547	comparative performance
0.6235148789	provide strong empirical evidence
0.6234985634	point patterns
0.6234771984	asymptotically correct
0.6234746728	predictive information
0.6234609551	extremely effective
0.6234526254	approximate recovery
0.6233789102	bad local
0.6233375926	short time fourier
0.6233279533	aggregated gradient
0.6233123684	cifar10 and cifar100
0.6233070338	symmetric positive
0.6232704042	auc optimization
0.6232481042	highly specialized
0.6231889835	existing literature
0.6231305923	coordinate descent method
0.6231159690	labelled datasets
0.6231085038	deep deterministic policy
0.6230900175	provable approximation
0.6230707964	requires solving
0.6230500792	domain generation
0.6229920843	nonconvex low rank
0.6229862963	online detection
0.6228623483	linear convergence rates
0.6228491439	achieving high
0.6228174963	linear regret
0.6227956534	numerical study
0.6227866053	alignment method
0.6227495231	map reduce
0.6227309825	model accuracy
0.6227111016	limiting distribution
0.6227070388	health data
0.6226703237	monte carlo algorithm
0.6226070701	noise condition
0.6226007162	kernelized stein
0.6225987316	formal connection
0.6225857182	smooth convex function
0.6225755330	failure cases
0.6225612447	meta gradient
0.6225165207	consistent improvement
0.6224896214	sketching algorithms
0.6224700708	large pretrained
0.6224540771	product search
0.6224433436	agent environment
0.6223321184	heuristic approaches
0.6223271896	max plus
0.6222663462	error backpropagation
0.6222375456	incrementally learn
0.6222266866	generated image
0.6221947867	deep neural network architecture
0.6219919378	brain image
0.6219792893	graph cnn
0.6219153494	synthetic experiments
0.6218987436	efficient architecture search
0.6218074579	vehicle control
0.6217853485	desired accuracy
0.6217798128	technique called
0.6217172682	group theory
0.6216939586	coherence tomography
0.6216573876	graph spectral
0.6216449426	graph similarity
0.6216334689	nonlinear relationships
0.6215804068	affinity prediction
0.6215775573	reinforcement learning policies
0.6215765961	singular value
0.6215268340	cluster specific
0.6215024957	gradient descent algorithms
0.6213422164	attribute space
0.6213337261	standard lstm
0.6213068214	improves performance
0.6212603869	inference procedure
0.6212543178	convolutional filter
0.6212168652	lstm layer
0.6212129385	bayesian nmf
0.6212062587	potential based
0.6211972433	hand labeled
0.6211570673	demonstrate empirically
0.6211568302	learning frameworks
0.6211436894	gpt 2
0.6211327154	systematically investigate
0.6211139290	statistical methods
0.6211084721	generating function
0.6211019379	graph ae and vae
0.6210563403	source data
0.6210428157	global minimizer
0.6209737015	theoretical predictions
0.6209227999	user data
0.6209106833	self driving vehicles
0.6208570575	sample wise
0.6208021671	biased data
0.6207578070	lstm architecture
0.6207544423	rigorously analyze
0.6207209704	model learns
0.6207001954	machine learning community
0.6206975656	diffusion kernel
0.6206469329	expert actions
0.6206382522	data collected
0.6206334717	target data
0.6205465693	cluster quality
0.6205404669	fast incremental
0.6204970018	term load forecasting
0.6204934568	forecast accuracy
0.6204729207	high dimensional observations
0.6204505079	graph aware
0.6204210023	complex nonlinear
0.6203887330	local approximation
0.6203730636	strong performance
0.6203316576	verification problem
0.6202098302	online feature selection
0.6201815436	stochastic linear bandit
0.6201276321	general applicability
0.6201126005	network representation learning
0.6200973072	partial likelihood
0.6200963617	growing demand
0.6200899411	network classifiers
0.6200499962	exploration exploitation trade off
0.6200197600	high probability bounds
0.6199802670	resilient distributed
0.6199689313	special structure
0.6199490426	descent algorithm
0.6199269620	reinforcement learning tasks
0.6199213289	multiple gpus
0.6198931975	mixing matrix
0.6198688812	continuous speech
0.6198281783	directly optimizes
0.6198129369	satisfactory results
0.6198100507	linear embeddings
0.6198006876	based attacks
0.6197881135	binary vectors
0.6197512480	bootstrap samples
0.6197499440	numerical analysis
0.6197043994	qualitative results
0.6196517691	arbitrary sampling
0.6196200613	approximation schemes
0.6196045486	structural patterns
0.6196031425	information theoretical
0.6196027825	sensitivity prediction
0.6195977001	supervised training
0.6195796748	numeric data
0.6195742543	empirical investigation
0.6195557886	domain translation
0.6195557264	metropolis hastings algorithm
0.6195498727	heterogeneous datasets
0.6195406598	automatically determine
0.6195374791	short and long term
0.6195300734	pac model
0.6194939889	mass function
0.6194915666	inference networks
0.6194602991	individual components
0.6194344112	optimal convergence rate
0.6194303688	quantitative analysis
0.6194287912	segmentation accuracy
0.6194252668	sample average
0.6194252216	realistic image
0.6194236143	policy transfer
0.6194210584	additional benefit
0.6193325707	discrete fourier
0.6193149329	active learning algorithms
0.6192780866	crowdsourced data
0.6192465389	equality of opportunity
0.6192395167	variational bayes inference
0.6191661240	source model
0.6191498536	adversarial example generation
0.6191285173	hierarchical variational
0.6191163517	accurately identify
0.6191117799	pairwise graphical
0.6190891324	long term average
0.6190640090	improving fairness
0.6190346224	meaningful features
0.6190014897	super human
0.6189483251	extra information
0.6189442315	challenging task
0.6189419024	conducted experiments
0.6188926797	human diseases
0.6188870886	local stability
0.6188772807	collective learning
0.6188464091	total complexity
0.6188246384	generative neural networks
0.6188120221	quantization schemes
0.6187747606	low dimensional euclidean space
0.6187529918	one bit compressed sensing
0.6187275028	kernel embeddings
0.6186974859	proof relies
0.6186892870	received little attention
0.6186142239	marginal probability
0.6186103986	inference algorithm
0.6185952637	fundamental issue
0.6185943521	computational advantages
0.6185720884	dependent samples
0.6185615496	problem setting
0.6185422230	goodness of fit test
0.6185196133	sequential decisions
0.6185080752	increased accuracy
0.6184903523	greedy approach
0.6184720674	structured variational
0.6184679153	basis elements
0.6184418438	detection power
0.6184349782	rate reduction
0.6184193665	structure information
0.6183429239	additive regression
0.6183192277	registration methods
0.6182347361	nearest neighbor graphs
0.6181967978	result holds
0.6181791479	embedding based
0.6181587651	resnet 34
0.6181317180	taking into account
0.6181019583	formal definition
0.6180969369	pruned model
0.6180357856	emerging paradigm
0.6180324134	reduction technique
0.6180247807	basic concepts
0.6180158982	kernel k means
0.6179378545	fundamental concepts
0.6178983029	meta data
0.6178563117	stochastic optimization algorithms
0.6178450742	regularized maximum likelihood
0.6178304403	parallel optimization
0.6178119902	copula model
0.6177994163	parameter efficiency
0.6177850459	higher probability
0.6177612594	promising performance
0.6176367001	analytical expressions
0.6176308590	local spatial
0.6174996849	hidden parameters
0.6174815445	worst case expected
0.6174670006	level sparsity
0.6174580842	parameter recovery
0.6174550583	break down
0.6174468256	actor critic architecture
0.6174415129	proposed methodology
0.6173602613	resource constrained edge
0.6173249537	binary features
0.6173104770	proposed method
0.6172778475	multi graph
0.6172634341	linear bandit problem
0.6172633714	branch and bound
0.6171738748	effective ways
0.6170946599	self play
0.6170659933	medical domain
0.6170476407	potential outcome
0.6170003589	simulated environment
0.6169971909	alternating minimization algorithm
0.6169684063	deep probabilistic
0.6169654321	stochastic multi armed bandit problem
0.6169088102	momentum parameter
0.6168926029	deg _ \ rm
0.6168738558	conditional maximization
0.6168602756	fundamental properties
0.6168313642	sampling cost
0.6168206959	source distributions
0.6168104163	iterative procedures
0.6167749605	cf based
0.6167414196	fully explored
0.6167190561	anomalous samples
0.6166998216	problem instances
0.6166498000	stable training
0.6166305087	solving large scale
0.6165713561	packing problem
0.6165597636	robust submodular
0.6165513001	free form
0.6165439165	estimator enjoys
0.6165339425	automatically select
0.6165284548	normalized laplacian
0.6165244809	learning scenarios
0.6164823395	constrained optimization problem
0.6164391597	differentially private learning
0.6164201472	fast adversarial training
0.6163682457	subsequent tasks
0.6163600073	classical statistics
0.6163572544	autoregressive networks
0.6163279863	de biasing
0.6162491118	numerical evaluations
0.6162416700	control inputs
0.6161612531	global scale
0.6161486326	numerical error
0.6161311773	target set
0.6161193766	regularized risk
0.6161133817	dynamic treatment
0.6161086046	unbiased risk
0.6161008615	empirical error
0.6160857533	computational issues
0.6160841203	convolutional neural network architectures
0.6160628275	representative sample
0.6160257010	generating process
0.6160116294	perceptron algorithm
0.6159620933	asymmetric networks
0.6159388013	manifold embedding
0.6159130377	private learning
0.6159057741	data scarce
0.6158859107	empirical average
0.6158854905	neuron model
0.6158745870	observational study
0.6158498204	unknown regression function
0.6158411650	defense method
0.6157878800	algorithmic perspective
0.6157677145	mobile edge
0.6157455949	extremely efficient
0.6157433644	deep generative modeling
0.6157305083	suboptimal solutions
0.6157135186	community based
0.6157005873	outstanding results
0.6156590038	de novo
0.6156304248	gradient based methods
0.6156219752	label efficient
0.6155751660	data source
0.6155528646	network's performance
0.6155325723	sparsity inducing prior
0.6155259323	future prediction
0.6154912904	fair representation
0.6154862086	real world phenomena
0.6154806735	spectral radius
0.6154548506	similar results
0.6154176527	data sparsity
0.6153912904	hidden community
0.6153372974	risk modeling
0.6153015590	potential future
0.6152698155	user dependent
0.6152348420	prediction function
0.6151568102	conditional random
0.6150904106	training progresses
0.6150879437	sensory information
0.6150462612	experimental evaluation shows
0.6150453541	sparse tensor
0.6150392600	single generator
0.6150241922	online services
0.6150124733	mujoco tasks
0.6149540238	scales linearly
0.6149257500	latent patterns
0.6149093902	edge level
0.6148569264	synthetically generated data
0.6148514090	similar individuals
0.6147755060	helps improve
0.6147683746	smaller networks
0.6147654950	stochastic recurrent
0.6147540216	probability simplex
0.6146999787	naturally extends
0.6146251693	sampled entries
0.6145607312	probabilistic classifier
0.6145513378	stochastic momentum
0.6144961318	replay based
0.6144522790	distributed asynchronous
0.6144046958	capture long range
0.6143815474	medical experts
0.6143097617	programming relaxation
0.6142750833	convex quadratic
0.6142382678	learning representations
0.6142364636	semi supervised node
0.6141749656	imaging studies
0.6141515113	feature selection algorithm
0.6141094206	qualitative analysis
0.6141078363	decision making under uncertainty
0.6140978450	faster convergence rate
0.6140444113	whole slide
0.6140355457	enhanced performance
0.6140014442	structure recovery
0.6139977618	adversarial imitation
0.6139775852	variational framework
0.6139384798	response variable
0.6139264930	provide theoretical
0.6139148166	chest x ray images
0.6138879841	larger dataset
0.6138854323	cut problem
0.6138678558	prediction interval
0.6138227179	graph recovery
0.6138218549	calibration functions
0.6137382168	highly constrained
0.6137334442	mean absolute percentage
0.6137064259	optimization strategy
0.6136827835	spectral algorithm
0.6136273540	partition based
0.6135865032	importance measure
0.6135112600	theoretical evidence
0.6134919619	standard dropout
0.6133858734	pretrained model
0.6133726445	efficiency gains
0.6133588887	similar performance
0.6133424417	sparse coding and dictionary
0.6133105833	convolutional recurrent neural networks
0.6132860249	worst case guarantees
0.6131881125	geometric graph
0.6131791345	initial states
0.6131544438	clinical diagnosis
0.6131147235	weighting function
0.6130838918	32 bit floating
0.6130001117	multiple machines
0.6129857268	attack graphs
0.6129584798	approach yields
0.6129504244	stochastic dynamical systems
0.6129409158	human interpretability
0.6129023131	hold true
0.6128917024	agent's performance
0.6127113706	negative correlation
0.6126704587	deterministic markov
0.6126661413	catastrophic forgetting problem
0.6125548053	causal networks
0.6125418245	learning methods
0.6124993828	mismatch problem
0.6124957588	expression data sets
0.6124920513	simplified version
0.6124576037	thresholding operator
0.6124401120	data independent
0.6124274158	graph translation
0.6123829293	key components
0.6123677448	local lipschitz
0.6123566534	graph learning
0.6123287155	exact solution
0.6122865306	numerical optimization
0.6122258579	empirically successful
0.6121834080	current solutions
0.6121586773	distribution mismatch
0.6121349147	small variance
0.6120928983	empirically compare
0.6120346127	typically requires
0.6120324999	dual variable
0.6120165393	adaptive thresholding
0.6120068180	sample paths
0.6119962639	hardness results
0.6119960227	computation costs
0.6119930059	numerical approximation
0.6119623070	network layer
0.6119603366	joint action
0.6119450368	tensor response
0.6119240597	transfer functions
0.6118971822	negative results
0.6118768564	accurately represent
0.6118612895	visual recognition tasks
0.6118474723	simple heuristic
0.6118017299	adaptive stochastic gradient
0.6117586184	double deep q
0.6117502359	coordinate descent methods
0.6117368154	outperforms standard
0.6117173585	image prior
0.6116906139	physical model
0.6116634111	variable splitting
0.6116489870	detection method
0.6116340179	multiple devices
0.6116222167	unlabeled target data
0.6116102001	strongly convex and smooth
0.6114891611	binary cross entropy
0.6114876574	past gradients
0.6114712816	model training
0.6114633488	generalized additive models
0.6114278234	sparse outliers
0.6113901412	existing solutions
0.6113434590	effectively learn
0.6113394859	deep learning approaches
0.6113274250	feature encoding
0.6113116994	semantic image
0.6112839122	maximum weight
0.6112606860	algorithms run
0.6112594469	hidden structure
0.6112332197	dependent baseline
0.6111600802	data distribution
0.6111515052	adam and rmsprop
0.6111143979	inference network
0.6111116378	network data
0.6111000163	ucb based
0.6110572789	connection weights
0.6110422809	reduced order model
0.6110280861	high dimensional binary
0.6110251117	dimensional setting
0.6110067761	laplacian based semi supervised
0.6110027976	memory limited
0.6110014324	research opportunities
0.6109802858	episodic markov decision
0.6109760937	toy problem
0.6109624219	supervised feature selection
0.6109489006	simulated examples
0.6109444247	composition optimization
0.6109180800	regularized estimator
0.6108766790	external data
0.6108377866	exploration methods
0.6108375912	variable clustering
0.6108089661	automatically learn
0.6108048270	latent embeddings
0.6107997347	selection algorithm
0.6107365228	mixture of experts
0.6106793584	computational performance
0.6106577992	super learning
0.6106492996	optimization criteria
0.6106216854	control strategies
0.6105957090	proven successful
0.6105579397	ground truth data
0.6105322898	sensor inputs
0.6104233037	challenging problem
0.6104209879	low rank plus sparse
0.6104029077	fully bayesian inference
0.6104017254	self exciting point
0.6103871602	graph autoencoder
0.6103214979	bidirectional recurrent neural
0.6102115269	statistical estimation problems
0.6101913777	limited success
0.6101793645	online linear regression
0.6101547660	yield prediction
0.6101172509	large scale optimization
0.6100435252	polynomial equations
0.6100130024	stochastic zeroth order
0.6099989869	quantized neural
0.6099800804	optical character
0.6099211327	arbitrary continuous
0.6098476504	baseline model
0.6098440129	generating images
0.6098420793	local neighborhood
0.6098332070	alternative methods
0.6098121892	self organizing
0.6097912219	meta reinforcement
0.6097897594	overfitting problem
0.6097895701	graph estimation
0.6097866095	metric constrained
0.6097504351	true data generating
0.6097201537	outperforms traditional
0.6097069048	enables efficient
0.6095941090	algorithm recovers
0.6095830615	accurate classification
0.6095690407	estimation variance
0.6095641770	generalized lasso
0.6095468135	computer assisted
0.6095279316	optimization objectives
0.6094551968	complete data
0.6094422830	alternating direction methods
0.6094300446	common scenario
0.6094286154	interpretable machine
0.6093828483	gaussian markov random
0.6093741759	parameter regimes
0.6093463526	fully characterize
0.6093394097	outperform traditional
0.6093233844	preliminary experimental results
0.6093051418	bo methods
0.6092954170	takes into account
0.6092787849	generalized linear models
0.6091738669	exploration in reinforcement learning
0.6091713692	batch selection
0.6091483941	loss term
0.6091436083	upper and lower bounds
0.6091343590	ergodic markov
0.6090822386	multiple ways
0.6090511010	error guarantees
0.6090290315	inference methods
0.6089820766	efficient learning
0.6089742883	stochastic distances
0.6089653562	neural network classifier
0.6089400313	lower and upper bounds
0.6089026888	adaptive policies
0.6088719783	random measure
0.6088060579	health domain
0.6087934166	function approximations
0.6087738515	vulnerable to adversarial attacks
0.6087275637	stand alone
0.6087259043	strong guarantees
0.6086890396	loss gradients
0.6086673338	carlo sampler
0.6086610609	sequence learning
0.6086117382	social groups
0.6085339341	estimating individual
0.6085185621	personal information
0.6084833376	strong assumption
0.6083904377	model's ability
0.6083862389	substantial improvement
0.6083804548	regression coefficient
0.6083635969	continuous spaces
0.6083601847	probabilistic machine learning
0.6083205527	current state
0.6083110939	rl methods
0.6082754197	existing techniques
0.6082735801	cascade model
0.6082324520	generic optimization
0.6081967952	fully online
0.6081875595	target language
0.6081827195	underlying distribution
0.6081797748	predictive probability
0.6081727267	optimal fair
0.6081338777	key concepts
0.6081257815	adaptive boosting
0.6080894494	real world scenario
0.6080893568	greedy selection
0.6080845289	state and action spaces
0.6080489182	ar model
0.6080465014	tractable probabilistic
0.6080309807	simple yet effective
0.6079927699	neural decoding
0.6079905034	effectively detect
0.6079509029	shrinkage and selection operator
0.6079503536	probabilistic classification
0.6079299156	alignment problem
0.6078512424	signature based
0.6078486610	decision making process
0.6078406022	practical deployment
0.6078311216	large scale machine learning
0.6078169347	statistical tools
0.6078139549	model achieves
0.6078082446	ensemble framework
0.6077595827	method achieves
0.6077468696	random trees
0.6077443805	federated machine learning
0.6077240470	gaussian graphical models
0.6077158288	temporal variability
0.6077156857	adaptive data analysis
0.6076790269	probabilistic clustering
0.6076779209	function maximization
0.6076678915	worst case analysis
0.6076341031	trajectory based
0.6076019922	empirical observations
0.6075964667	remains unknown
0.6075904867	landscape analysis
0.6075581236	efficient distributed
0.6075372875	data reconstruction
0.6074521133	residual error
0.6074483083	unique solution
0.6074306038	simulated environments
0.6073921033	factor regression
0.6073659563	automatic feature
0.6073518131	diverse datasets
0.6072646439	iterates converge
0.6072358934	robust boosting
0.6071986004	ai agent
0.6071959958	vector valued functions
0.6071942702	strongly convex problems
0.6071665903	spectroscopy data
0.6071653352	optimal learning rates
0.6071009542	gradient td
0.6070941960	simultaneously learning
0.6070858606	normal distributions
0.6070713031	low level features
0.6070416821	independent subspace
0.6069555665	practical advantages
0.6069492391	significant margin
0.6069030619	optimization process
0.6068788708	exploratory data
0.6068536242	experimental study
0.6068485007	high dimensional state spaces
0.6068064146	car following
0.6067943909	key features
0.6067768148	classical methods
0.6067684185	deep bidirectional
0.6067635906	dataset bias
0.6067610748	adversarial settings
0.6067295198	multiple stages
0.6067288621	bayesian matrix factorization
0.6067123441	rank constraints
0.6066324929	data vectors
0.6066117070	swing up
0.6066002448	optimal bayesian
0.6065497212	size independent
0.6065370306	norm penalized
0.6065366138	real log
0.6065336181	local computation
0.6065171551	incremental training
0.6065096503	loss bounds
0.6064385963	fixed dimensional
0.6064381965	superior predictive performance
0.6064357411	clinical events
0.6064144284	limiting cases
0.6063799588	independent samples
0.6063445475	building robust
0.6063413164	decision set
0.6062804089	anytime algorithm
0.6062639130	baseline algorithms
0.6061712240	sparse learning
0.6061545796	inference schemes
0.6061290303	data distributions
0.6061049137	prediction performance
0.6060812802	labeled training
0.6060606057	demographic data
0.6060435479	statistical strength
0.6060276481	graph describing
0.6060131149	optimization techniques
0.6060069035	multimodal distributions
0.6059873893	domain dependent
0.6059837772	achieves higher accuracy
0.6059695972	binary labels
0.6058853717	combinatorial optimization problem
0.6058517230	machine learning model
0.6058411003	flow simulations
0.6058127393	increases linearly
0.6057945191	systematic generalization
0.6057574887	recovery conditions
0.6057506811	drastically improve
0.6057222861	multiple annotators
0.6057135367	numerical simulation
0.6057090222	extreme cases
0.6056929519	deep convolution
0.6056434499	np hard in general
0.6056312065	feature selection algorithms
0.6056127313	one hidden layer relu
0.6056104090	proof of concept
0.6055416022	method yields
0.6054916540	multimodal datasets
0.6054843055	user modeling
0.6054810584	unknown environments
0.6054726063	worse performance
0.6054618105	accurate approximations
0.6054451735	large margin classification
0.6054384314	proposed estimator
0.6054381202	sequential decision making problems
0.6054358341	diagonal approximation
0.6053941941	variational gradient descent
0.6053452183	tensor estimation
0.6053261585	model quality
0.6052661899	attack strategies
0.6052178142	length of stay
0.6052113508	growing literature
0.6051919346	human generated
0.6051839004	learning approach
0.6051679802	accelerated stochastic
0.6050948920	improves accuracy
0.6050709562	extremely simple
0.6050672266	significant advances
0.6050658299	adaptive learning
0.6050637701	shot classification
0.6050102670	classifier ensemble
0.6049751130	segmentation tasks
0.6049271468	ranked data
0.6049145867	data centric
0.6048312235	exhibits superior
0.6048274330	speech data
0.6047743025	domain classifier
0.6047609888	individual patients
0.6047595678	image pixel
0.6046892247	direction method of multipliers
0.6046087180	landmark detection
0.6044959731	trust region methods
0.6044114516	discrete domain
0.6044098347	complex relationships
0.6043725961	latent subspace
0.6043514580	gradient matching
0.6043409301	representation capability
0.6043303020	statistical manifold
0.6042911908	insufficient training data
0.6042381886	learning scheme
0.6042150404	multiple layers
0.6042130421	simulated data sets
0.6041997452	ascent algorithm
0.6041923613	computational tools
0.6041918119	finite mixture model
0.6041833267	markov transition
0.6041768192	expected accuracy
0.6041453131	integration scheme
0.6040641279	learning framework
0.6040605012	computational difficulties
0.6040181575	collaboratively learn
0.6040096329	significant performance improvement
0.6039706971	label matrix
0.6039542939	broad learning
0.6039442549	approximate newton
0.6039332931	surrogate objective
0.6038653447	mri dataset
0.6038337118	link prediction and node
0.6038189035	low loss
0.6038141000	bayesian deep
0.6038042014	soft classification
0.6037829080	sum of squares
0.6037526978	maximum likelihood estimate
0.6037520819	physiological time series
0.6037262019	practically important
0.6036537087	adversarial input
0.6035980647	prior methods
0.6035802920	underlying subspaces
0.6034868918	dependent variables
0.6034603954	spectral regularization
0.6034414230	lipschitz gradient
0.6034218124	fewer measurements
0.6034131645	large scale kernel
0.6033693540	simultaneously learn
0.6033643746	numerous studies
0.6033164629	federated learning systems
0.6033084090	typically solved
0.6032886140	standard reinforcement learning
0.6032193039	natural language processing tasks
0.6031063259	level labels
0.6030894837	r package
0.6030775984	disentangled latent
0.6030609662	method called
0.6030346360	anomaly detection methods
0.6030177881	x ray ct
0.6029126313	received much attention
0.6028886635	sparsity based
0.6028791963	design strategy
0.6028712067	outlier detection methods
0.6028701120	unlabeled sample
0.6028474622	estimation error bounds
0.6028378596	computational experiments
0.6028125285	main components
0.6028071361	single step adversarial
0.6027812124	temporal dimension
0.6027775135	feature extraction method
0.6027590744	knowledge aware
0.6027276345	jointly modeling
0.6027229460	robust and scalable
0.6027144953	policy gradient algorithm
0.6026841538	few shot
0.6026772833	general theory
0.6026666752	achieving optimal
0.6026487041	synthesized images
0.6026441488	learning agent
0.6025797326	combined model
0.6025710486	extensive simulation
0.6025564335	computing platforms
0.6025563221	gaussian process model
0.6025374757	arbitrary graphs
0.6025308781	prediction methods
0.6024465425	cancer classification
0.6024464419	fully connected network
0.6023864367	visual object
0.6023740727	biomedical applications
0.6023696057	anomaly detection techniques
0.6023495227	bayesian setting
0.6023357246	dimensional feature space
0.6023278464	adversarial manipulation
0.6022703892	structured priors
0.6022473863	accurate inference
0.6022287542	careful tuning
0.6022216390	agnostic learning
0.6022052927	learning machines
0.6021385791	empirical analysis
0.6020933255	noise robustness
0.6020841316	original dataset
0.6019974182	multiple experts
0.6019522155	single cell rna
0.6019520217	approach combines
0.6018869649	tensor nuclear
0.6018834945	single cell rna sequencing data
0.6018763163	video dataset
0.6018516495	stochastic coordinate descent
0.6018402364	information theoretic bounds
0.6018237020	efficient approximations
0.6018122243	quantitative results
0.6017723888	regression framework
0.6017654946	semantic gap
0.6017301921	defense techniques
0.6016913561	imbalance issue
0.6016779515	iterative optimization
0.6016591342	binary tree
0.6016579340	limited labeled data
0.6016038126	mutual information based
0.6015633124	quantization method
0.6015427444	layer wise adaptive
0.6014978559	multi layer neural networks
0.6014488066	an open source library
0.6013555096	learned skills
0.6013533938	negative impact
0.6013393765	efficiently learn
0.6012837668	academia and industry
0.6012296847	equilibrium point
0.6011928282	perturbed data
0.6011801269	approach achieves
0.6011718679	original form
0.6011619883	medical datasets
0.6011371413	potential benefits
0.6011048313	limited communication
0.6010302012	hashing based
0.6010070488	multimodal deep learning
0.6009701499	hmm based
0.6009476159	streaming algorithms
0.6009370147	data pre processing
0.6009230165	supervised image classification
0.6009228106	existing studies
0.6008981496	practical settings
0.6008927194	translation performance
0.6008815817	self supervision
0.6008414771	agent behavior
0.6008362616	problems arise
0.6008321003	shown great
0.6008180777	group based
0.6007620198	perform bayesian inference
0.6007559252	conduct comprehensive
0.6007495369	high dimensional multivariate
0.6007464972	entropy sgd
0.6006884620	stochastic optimization methods
0.6006558793	interaction detection
0.6006314300	probabilistic graphical models
0.6005768068	poses challenges
0.6005760993	selection rules
0.6005323052	robust linear regression
0.6005129816	_ \ lambda
0.6005124288	quasi convex
0.6004460684	adaptive importance
0.6004440390	input representations
0.6004229926	great importance
0.6003688874	prototype learning
0.6003228548	multi agent environment
0.6003008242	real world data
0.6002900452	paper introduces
0.6002730870	automatically extract
0.6002476093	accelerated stochastic gradient
0.6002104422	bayesian classifier
0.6001881812	domain invariant feature
0.6001313175	aware attention
0.6001044413	volatility model
0.6000815186	financial industry
0.6000455690	neural network model
0.6000426902	batch settings
0.6000342702	movielens datasets
0.6000331436	trained jointly
0.6000086085	log likelihood function
0.6000080009	markov properties
0.5999767751	vector product
0.5999587805	theoretical analysis reveals
0.5999516701	matching networks
0.5998976789	solution paths
0.5998751529	popular approaches
0.5998636532	phase retrieval problem
0.5998319945	algorithms require
0.5997650061	trained end to end
0.5997644820	experimental conditions
0.5997260043	noisy input
0.5996912273	optimistic gradient
0.5996644449	subsequent analysis
0.5996592182	exploration policies
0.5996245963	sufficient dimension
0.5995658782	k medoids
0.5995632674	similarity scores
0.5995410089	synthetic and real world
0.5995126459	theoretically proved
0.5994973725	reliable estimation
0.5994692093	degree of freedom
0.5993931610	simple yet powerful
0.5993832689	expression patterns
0.5993824927	high uncertainty
0.5993782371	no spurious local minima
0.5993505695	real applications
0.5993453325	adaptive monte carlo
0.5992753428	local scaling
0.5992559242	transductive setting
0.5992337372	improved convergence rates
0.5992193234	model development
0.5991847332	rl framework
0.5991789102	evaluation process
0.5991760562	iterative regularization
0.5991126622	underlying manifold
0.5990707141	dimensional feature vector
0.5990315324	learning setup
0.5990189407	theoretic framework
0.5990149843	flexible nonparametric
0.5990051040	fully utilize
0.5989342775	demonstrate experimentally
0.5988528060	substantial computational
0.5988492351	splitting scheme
0.5988461077	effectively capture
0.5988251828	modern data analysis
0.5988235660	external sources
0.5988101180	absolute values
0.5988032008	linear contextual bandit
0.5987427293	stochastic proximal
0.5987159745	negative weights
0.5987078342	training instability
0.5986765783	multilabel learning
0.5986581903	error metric
0.5986083660	structure learning algorithms
0.5985437851	continue to grow
0.5985146107	desired property
0.5984659396	hyper parameter values
0.5984043860	adaptation strategy
0.5983646714	framework called
0.5982448456	differentially private algorithms
0.5982300831	deep representation learning
0.5981913459	significantly affect
0.5981850519	positive unlabeled learning
0.5981842652	trained networks
0.5981770190	moment matrix
0.5981715923	hierarchical tree
0.5981368482	bayes factors
0.5980260203	data driven decision making
0.5980029404	achieving robustness
0.5979533267	scalable gp
0.5979457441	dimensional projection
0.5979207295	hierarchical model
0.5979168482	semantic labels
0.5979158329	kernel distance
0.5979089050	independence assumptions
0.5978506995	orders of magnitude
0.5978448819	high dimensional sparse regression
0.5978367207	energy forecasting
0.5977952378	related methods
0.5977922381	adaptive submodular
0.5977329932	cancer gene
0.5976795348	feature augmentation
0.5976707781	evolutionary optimization
0.5976041873	ray ct
0.5975788711	obtaining accurate
0.5975515774	discriminative ability
0.5974985711	low dimensional features
0.5974562135	independent set
0.5974495147	principled manner
0.5974445985	~ \ cite
0.5974309457	detection rates
0.5974104860	right censored
0.5974095536	design problem
0.5974054115	linear maps
0.5973982357	neural density
0.5973963007	robustness analysis
0.5973566756	neural collaborative filtering
0.5972716223	offers significant
0.5971701423	node label
0.5970896133	generalization loss
0.5970862001	empirical tests
0.5970726746	discovering latent
0.5970616360	structural priors
0.5970302559	achieve high
0.5970289627	low rank components
0.5970137056	standard approaches
0.5969904359	inductive graph
0.5969743791	reconstruction process
0.5969652083	activation values
0.5968932504	robust features
0.5968750969	proposed approach
0.5968323698	dimensional projections
0.5967609837	recently emerged
0.5967442745	marl algorithms
0.5967242034	previous layer
0.5967231761	vgg 19
0.5966808124	finding patterns
0.5966660655	statistical analyses
0.5966287319	reasoning process
0.5965713539	source and target domains
0.5965459462	bayesian model
0.5964586024	support size
0.5964361210	estimates obtained
0.5964205957	intermediate feature
0.5964087066	structured signals
0.5964006060	slab prior
0.5963555056	conditional variational
0.5963487617	quantization methods
0.5963469000	low dimensional spaces
0.5963257571	decentralized deep learning
0.5963173993	human faces
0.5962830190	two player zero sum
0.5962259133	classifier design
0.5961881590	sparse gps
0.5961604577	pattern classification
0.5961304132	taking advantage
0.5960939067	recently shown
0.5959931698	search results
0.5959581498	fully connected and convolutional
0.5959473511	relational inference
0.5958972220	rich literature
0.5958906734	dimensionality reduction technique
0.5958567453	communication links
0.5958428907	optimization based
0.5957915140	end devices
0.5957331298	reinforcement learning problems
0.5957074972	acceptable accuracy
0.5956598335	active learning algorithm
0.5956112364	practical usefulness
0.5955456041	result showing
0.5955049928	simple baselines
0.5955010239	black box setting
0.5954747908	validation data
0.5954573102	easily interpretable
0.5952653632	poor scaling
0.5952323309	larger data sets
0.5952285432	well calibrated uncertainty estimates
0.5951796872	community detection algorithms
0.5951773817	improved accuracy
0.5951372703	task distribution
0.5950689020	weak assumptions
0.5950183294	multi output prediction
0.5950007031	paired data
0.5949959024	qualitatively and quantitatively
0.5949779712	goodness of fit tests
0.5949734798	fixed rank
0.5949686778	causal discovery algorithms
0.5949417263	neural decoders
0.5949302109	likelihood estimate
0.5947993124	unlabeled data points
0.5947123269	pattern detection
0.5946756700	generalized tensor
0.5945856412	standard methods
0.5945692951	approximation rate
0.5945608147	test case
0.5945518758	output sequences
0.5945451619	ml approaches
0.5945316506	global convergence guarantee
0.5944994797	bayesian estimation
0.5944978579	select features
0.5944829124	predictive capability
0.5944759674	linear structural equation
0.5944546125	distributed datasets
0.5944498297	t_ \ mathsf
0.5944200616	data representations
0.5944128492	graph classification benchmarks
0.5943879770	extensive evaluations
0.5943414223	latent block
0.5943223013	deep reinforcement learning algorithms
0.5942278922	rate optimality
0.5942198989	leave one out
0.5941749421	multivariate functional
0.5941682881	semi supervised setting
0.5941241556	encoder decoder networks
0.5940882798	message passing neural networks
0.5940804749	sensor based
0.5940747069	transition distributions
0.5940525254	result applies
0.5940412866	text to sql
0.5939741124	approximately solve
0.5939565118	dynamics modeling
0.5939540884	limited scalability
0.5939406206	significant advantage
0.5939288032	pruning and quantization
0.5939229241	realistic synthetic
0.5939133183	online learning framework
0.5939083766	regularized problems
0.5938989430	network alignment
0.5938460580	multiple source domains
0.5937910555	representation ability
0.5937795790	matrix manifolds
0.5937726443	inference framework
0.5937251630	noisy images
0.5937087166	extensive ablation
0.5937065011	weight distributions
0.5936715630	efficient computation
0.5936677799	linear optimization
0.5935702321	network complexity
0.5935447557	negative class
0.5935377107	constrained convex optimization
0.5935331136	graph analysis
0.5934821819	essential role
0.5934737273	quality measure
0.5934621537	transition function
0.5934335346	asymptotic performance
0.5933796193	practical bayesian optimization
0.5933713520	successfully learn
0.5933249521	sparse structure
0.5932915375	recovery performance
0.5932814884	global latent
0.5932489831	empirical performance
0.5931987821	physical parameters
0.5931901693	word based
0.5931723913	performance loss
0.5931644263	benchmark study
0.5931412073	class imbalance problem
0.5931407134	natural parameters
0.5931241031	empirical experiments
0.5930961523	weighted loss
0.5930743172	bias term
0.5930289388	mimic iii dataset
0.5929883719	key factors
0.5929636797	recommender system
0.5929415394	inference tasks
0.5928995726	estimating mutual information
0.5928642319	bounded error
0.5928630844	resampling methods
0.5927943602	challenging problems
0.5927910498	stochastic policies
0.5927580518	structured regularization
0.5927542428	fairness aware learning
0.5927289751	classification rule
0.5926856354	data corruption
0.5926608364	report results
0.5926354510	achieved impressive performance
0.5926312871	learning environment
0.5925975939	simple linear regression
0.5925827957	model based and model free
0.5924562479	amazon mechanical
0.5924373941	intermediate step
0.5924051359	valid inference
0.5923687249	noisy image
0.5923493953	improve performance
0.5923422368	meta gradient descent
0.5923225125	provide theoretical justification
0.5923206657	traditional statistical
0.5922856015	training pipeline
0.5922265122	performance comparison
0.5922216646	major challenge
0.5921937717	hierarchical dirichlet process hidden
0.5921664993	coarse to fine
0.5921574274	approximate stationary
0.5921369142	stationary kernels
0.5920645564	link prediction task
0.5919379323	common approaches
0.5919295251	case scenario
0.5919155358	stochastic block models
0.5918898862	fast algorithms
0.5918852721	real examples
0.5918719715	order polynomial
0.5918021485	outlier detection algorithms
0.5917843877	statistical features
0.5917742899	dynamic tensor
0.5917351404	prediction rules
0.5917067274	comparison study
0.5917013263	building energy
0.5916953334	energy cost
0.5916845805	interesting applications
0.5916806601	noiseless case
0.5916254139	policy parameters
0.5915932138	approximately optimal
0.5915479161	real life datasets
0.5914937399	vary significantly
0.5914924918	efficient manner
0.5914635319	simultaneously optimizes
0.5914566059	empirical validation
0.5914058335	estimated parameters
0.5913320230	dual coordinate
0.5913058427	output dimension
0.5912891793	automatic generation
0.5912725688	linear threshold
0.5912414219	asynchronous training
0.5911464164	log probability
0.5911422291	explanation techniques
0.5911368065	learned embeddings
0.5910797438	information security
0.5910747336	low dimensional vector
0.5910727968	optimal asymptotic
0.5910028636	synchronous and asynchronous
0.5909991597	results demonstrate
0.5909789102	simple linear
0.5908641314	approximate computing
0.5908289436	temporal evolution
0.5908036922	empirically investigate
0.5907433801	gaussian designs
0.5907268435	one bit compressive
0.5906862051	deep multitask
0.5906640700	perception tasks
0.5905993609	benchmark methods
0.5905968682	large dimensional
0.5905947756	physical world
0.5905317359	classical results
0.5904674083	classifiers trained
0.5904069352	federated learning enables
0.5903785689	dependent random variables
0.5903562624	gated graph
0.5903555659	algorithmic bias
0.5903514198	simulator based
0.5903384509	gaussian mixture models
0.5902515794	direction of arrival
0.5902361605	downstream classification tasks
0.5902305872	multiple linear regression
0.5902031744	higher likelihood
0.5901544196	pattern based
0.5901495485	easily obtained
0.5901360648	theoretical background
0.5901220138	decentralized manner
0.5901163543	sparsity constrained
0.5900741375	temporal network
0.5899964898	network training
0.5899648715	k means
0.5899473901	filtering algorithms
0.5899062832	social learning
0.5899054639	previous analyses
0.5898897560	recent development
0.5898720424	approaches require
0.5898334253	memory required
0.5898267667	interaction kernels
0.5898012469	structural design
0.5897748084	computational results
0.5897602022	positive probability
0.5897486399	automatically generating
0.5897379937	developing world
0.5897378971	stream data
0.5897011100	multiple dimensions
0.5896660138	true values
0.5896576968	relative merits
0.5896569914	related task
0.5896543291	regularization strategy
0.5896498803	data contamination
0.5894524792	approximate joint
0.5894293163	parallel processing
0.5893796465	inductive transfer
0.5893260155	student's t distribution
0.5892721491	bayesian methodology
0.5892390190	multi output regression
0.5892307718	stability property
0.5892130374	normalization constant
0.5892072434	robust principal component
0.5891846270	nonnegative data
0.5891494623	unsupervised and semi supervised
0.5890916516	alarm rate
0.5890678172	processing pipeline
0.5890589383	empirical processes
0.5890583921	error correcting
0.5890099154	short term load
0.5890028208	constrained quadratic program
0.5889930883	self attentive
0.5889758021	measured data
0.5889547404	unified view
0.5889268592	complex data sets
0.5889093768	sequential monte carlo methods
0.5889065744	survey data
0.5888864000	spatial structures
0.5888659180	method finds
0.5888447962	model selection criterion
0.5888427723	density regions
0.5888378761	communication channels
0.5888140331	dependency graphs
0.5887833346	long term structure
0.5887416469	lower bound showing
0.5887321104	significant attention
0.5887238241	search based
0.5887117186	network model
0.5886864672	min max problem
0.5886557827	higher accuracies
0.5886471506	hierarchical representation
0.5886389644	class variable
0.5886369263	weight noise
0.5886284468	sparse dnn
0.5885918733	underlying geometry
0.5885761707	performance limits
0.5885672243	short run
0.5885349661	central model
0.5885251427	incremental clustering
0.5885134689	dimensional signals
0.5885117951	deep learning research
0.5885026150	svrg and saga
0.5884797028	bag of paths
0.5884724545	key difference
0.5884315546	approach improves
0.5884070273	mean field
0.5883980611	learning process
0.5883962513	carlo integration
0.5883767888	experimental results suggest
0.5883653568	single level
0.5883198684	connectionist temporal
0.5883123365	large data
0.5882804832	approximate solution
0.5882028752	optimal recovery
0.5881976778	image preprocessing
0.5881778910	low rank subspace
0.5881746386	significantly improving
0.5881504903	long standing challenge
0.5881482291	existing attacks
0.5881224291	bandit based
0.5880619130	co occurrence
0.5880071290	regularization penalty
0.5879635235	parameter learning
0.5879250816	graph embedding methods
0.5879070381	supervised and semi supervised
0.5878778815	low rank structures
0.5878434416	forest classifier
0.5878123671	recent improvements
0.5878021254	proposed solution
0.5877907912	acute kidney
0.5877635169	monolingual data
0.5877144217	hierarchical latent variable
0.5876679602	cluster validity
0.5876440692	automatic inference
0.5875934247	resolution image
0.5875676233	free to play
0.5875605073	natural parameter
0.5875161151	cnn rnn
0.5874949403	fully labeled
0.5874740898	sequential sampling
0.5874459925	individual words
0.5874372532	co occurring
0.5874007631	strengths and weaknesses
0.5873324967	accurate segmentation
0.5873234297	optimization procedures
0.5872372777	dimension reduction technique
0.5871874843	segmentation networks
0.5871859142	network inference
0.5870509305	geometric properties
0.5870357019	multiple goals
0.5870011814	collaborative deep learning
0.5869567413	computational perspective
0.5869562986	sequential latent
0.5869438565	oversampling techniques
0.5868164947	single instance
0.5867911041	text to image synthesis
0.5867213878	candidate architectures
0.5867065981	supervised approaches
0.5866892229	hidden node
0.5866692463	label classification
0.5866111404	unsupervised transfer learning
0.5865671773	computational methods
0.5865619636	type classification
0.5864947547	rank tensor
0.5864769702	large scale problems
0.5864693213	algorithm works
0.5864681864	u nets
0.5863715205	agglomerative hierarchical
0.5863595252	median of means
0.5863514935	sharing information
0.5863260857	low rank and sparse
0.5862331519	irrelevant information
0.5862176831	quantitatively and qualitatively
0.5861912306	attention pooling
0.5861406341	learned latent space
0.5861187030	order moment
0.5861070300	degraded performance
0.5860915009	highly dynamic
0.5860845213	easy to implement
0.5859962059	mathematical framework
0.5859814160	recent success
0.5859640914	feature alignment
0.5859462738	patient health
0.5859124583	rank reduction
0.5859117158	selected randomly
0.5858825352	observed behavior
0.5858652766	sufficient training data
0.5858182410	based defenses
0.5858151463	player game
0.5857984927	planning strategies
0.5857748290	data size
0.5856732106	fully supervised learning
0.5856726266	generates samples
0.5856431885	automatically generates
0.5856211025	linear operations
0.5855968312	random dot
0.5855794407	achieved great
0.5855693467	deep variational
0.5855681348	binary random variables
0.5855533533	forward backward algorithm
0.5854749973	high complexity
0.5854737519	demand side
0.5854323663	final layer
0.5854269746	synthetic and real world datasets
0.5854223678	prior research
0.5853879279	numerical experiments confirm
0.5853389796	relevant items
0.5853277556	optimal transport problem
0.5853271535	higher power
0.5852896074	co occurrences
0.5852805996	frank wolfe algorithms
0.5851487412	significant effort
0.5851014888	parameter update
0.5850318841	bernoulli process
0.5849934496	data protection regulation
0.5849791955	dictionary learning algorithm
0.5849444935	information theoretic analysis
0.5848897245	vulnerable to adversarial examples
0.5848640023	semi supervised regression
0.5848604698	gradient directions
0.5848404100	multivariate time series forecasting
0.5847421389	multiple resolutions
0.5847233697	kernel svm
0.5847045675	rank tensors
0.5846858896	spectral estimator
0.5846532642	non intrusive
0.5846194209	complexity penalty
0.5845952496	improved interpretability
0.5845923880	interesting connection
0.5845852416	machine learning driven
0.5845339992	traditional cnns
0.5845220264	continuous and discrete variables
0.5845061156	online anomaly detection
0.5843735578	computing environments
0.5843525847	neighborhood based
0.5843043708	zero inflated
0.5842953886	trading off
0.5842648477	trained policy
0.5842378707	robust federated learning
0.5842280888	additional supervision
0.5842277885	sparsity levels
0.5841377407	challenges remain
0.5840679792	end to end
0.5840640183	reduced complexity
0.5840618763	transition kernels
0.5840345060	intensive experiments
0.5840009320	posterior variance
0.5839400130	times fewer
0.5839220613	eeg features
0.5839024142	standard datasets
0.5839021517	additional training
0.5838884338	decentralized algorithm
0.5838365187	attribute prediction
0.5837467328	target distributions
0.5836980105	pre trained word
0.5836465711	practical benefits
0.5836134971	asymptotic guarantees
0.5835903281	consistently estimate
0.5835857699	boolean matrix
0.5835844002	statistical performance
0.5835779802	commercial applications
0.5835649131	problem solving
0.5835621101	random forest classification
0.5834801117	embedding approaches
0.5834382827	natural gradient method
0.5834100724	variance reduction technique
0.5834055734	practical problems
0.5833980986	rgb d
0.5833786472	computer vision
0.5832987753	optimal individualized
0.5832705295	produce poor
0.5832670403	detailed experiments
0.5832376577	rmsprop and adam
0.5832015773	transport cost
0.5831951700	fast rate
0.5831803186	conditional dependency
0.5831319025	university of california
0.5831142772	binary response
0.5831050333	frequent pattern
0.5829993135	adaptive algorithms
0.5829427982	hidden patterns
0.5829172268	likelihood computation
0.5829026069	popular methods
0.5828596220	trained model
0.5828392360	major drawback
0.5828082436	quantum information
0.5828020738	high dimensional classification
0.5827772611	received signal
0.5827518638	broad spectrum
0.5827252252	main focus
0.5826912465	forward selection
0.5826875401	optimization strategies
0.5826765660	noisy linear
0.5826496032	distributed settings
0.5826259652	space complexities
0.5826046077	explicit supervision
0.5825721207	iot applications
0.5824840796	protein interactions
0.5824743528	large hadron
0.5824553954	practical solution
0.5824440864	method learns
0.5824235394	fewer labels
0.5824010925	local quadratic
0.5823867562	initial results
0.5823820507	training data size
0.5823145828	exponential moving
0.5823009903	warm up
0.5822415009	practical solutions
0.5822350140	text datasets
0.5822339603	performance predictor
0.5822298316	care unit
0.5822286064	low dimensional representation
0.5822216267	output label
0.5821799157	observed graph
0.5821739799	expected risk
0.5821325148	never ending
0.5821213453	global optimal solution
0.5821016189	reconstruction task
0.5818834204	formal analysis
0.5818616125	large sample size
0.5818531476	linear activations
0.5818161044	advantages and disadvantages
0.5817757844	application domain
0.5817607982	critical systems
0.5817292661	online platforms
0.5816802327	noisy linear measurements
0.5816745567	efficient neural architecture search
0.5816510237	kernel principal
0.5816360209	arbitrary positive
0.5815742596	gated linear
0.5815739494	challenging scenarios
0.5815730956	deep kernels
0.5815552631	probabilistic framework
0.5815139274	mcmc based
0.5814866486	kernel based methods
0.5814843266	matrix norms
0.5814831754	relational graph
0.5814775135	diverse areas
0.5814522170	classification tree
0.5813894323	variational gaussian processes
0.5813862595	perform worse
0.5813475017	deep recurrent neural network
0.5813167175	vanishing and exploding
0.5813011035	fmri datasets
0.5812917999	additional parameters
0.5812485367	state variable
0.5812429053	self supervised
0.5812114733	user selection
0.5811850997	method works
0.5811570569	transfer learning framework
0.5810720550	method improves
0.5810668632	moving mnist
0.5810541926	convex objective functions
0.5810343379	structured low rank
0.5810148587	grow large
0.5809940591	higher robustness
0.5809901888	ode based
0.5809850394	outperform existing methods
0.5809775223	unsupervised ensemble
0.5808909127	pooling method
0.5808567835	high quality images
0.5806727326	yields improved
0.5806670772	benchmark data set
0.5806446199	high dimensional nonlinear
0.5806084318	node edge
0.5805923124	logistic regression model
0.5805843132	pseudo label
0.5805541890	simple baseline
0.5804362971	easily incorporated
0.5804121616	greedy method
0.5803861881	robustness guarantee
0.5803300376	stability properties
0.5803165123	multiple groups
0.5802855182	gaussian process latent
0.5802796658	variational problems
0.5802524961	feedback signals
0.5801944527	bayesian structure learning
0.5801769626	fast learning
0.5801614458	empirical study shows
0.5801386042	mab algorithms
0.5801348787	hessian based
0.5801289722	response curves
0.5801283824	predicted probabilities
0.5800480443	additional flexibility
0.5800430067	practical application
0.5800048839	outperforms previous
0.5799563682	linear chain
0.5799425895	methods enjoy
0.5799193815	dimension estimation
0.5799048852	machine learning technique
0.5798892550	word selection
0.5798241353	negative feedback
0.5798127926	safe rules
0.5798074388	applications including
0.5797937985	ml techniques
0.5797788282	hierarchical policy
0.5797666627	temporal convolutional
0.5797554167	deep generative models
0.5797284175	limited information
0.5797119700	based ensemble
0.5797112922	learning model
0.5797104772	image databases
0.5796966119	supervised anomaly detection
0.5796776127	complex structures
0.5796751830	test sample
0.5796446108	joint posterior
0.5795993449	active learning strategy
0.5795717103	anomalous data
0.5795401359	mean shift
0.5795093061	linear map
0.5794894602	graph connectivity
0.5794793159	linear convergence rate
0.5794751336	theoretically optimal
0.5794740887	multivariate functions
0.5794584884	evidence suggests
0.5794000997	deep autoregressive
0.5793796163	discrete states
0.5793773094	mixtures of gaussians
0.5793712346	end goal
0.5793703484	k fold cross validation
0.5793606589	gaussian random variables
0.5793524356	clear advantage
0.5793304798	dramatically outperforms
0.5792916355	labeled points
0.5792536355	algorithm configuration
0.5791704454	hidden parameter
0.5791620070	aforementioned problems
0.5791549609	choice based
0.5791303918	scientific studies
0.5791104748	action value functions
0.5790003512	nonconvex function
0.5789721683	dnn architectures
0.5789469263	based detector
0.5789467660	real world networks
0.5789352775	parameter choices
0.5788971781	signal classification
0.5788781114	correlation structures
0.5788605850	wide network
0.5788066047	task based
0.5788046003	asynchronous methods
0.5787955118	expected cumulative
0.5787168243	batch policy
0.5786888614	semantic representation
0.5786540977	layer relu networks
0.5785739147	long short term memory network
0.5784732219	variational representations
0.5784705189	originally developed
0.5784564719	statistical post processing
0.5784053080	spike and wave
0.5783973662	specific cancer
0.5783915904	robust generalization
0.5783866445	providing explanations
0.5783738566	decision tree based
0.5783566501	shown promising
0.5781725471	softmax based
0.5781233496	explainability methods
0.5781190081	learning strategy
0.5781153207	student's t
0.5780735667	extremely low
0.5780703248	significant gain
0.5780433255	noisy datasets
0.5780091034	traffic patterns
0.5780047366	random geometric
0.5779606224	significant performance
0.5778826182	task adaptive
0.5778697574	wild database
0.5778402463	arbitrary convex
0.5778233146	proposed algorithms
0.5777727953	switching linear
0.5777708008	current challenges
0.5777678563	motion information
0.5777374709	meta optimization
0.5777249340	binary linear
0.5777111135	decomposition methods
0.5777013927	semantic structure
0.5776750948	enabling efficient
0.5776381802	learning from noisy labels
0.5776177562	guarantee convergence
0.5775424770	predicting user
0.5775246984	analysis tools
0.5775171568	real data examples
0.5774905940	signal components
0.5774760004	sequential decision problems
0.5774318938	mining problems
0.5774299188	efficiently identify
0.5773719612	behavior analysis
0.5773615805	sparsity structure
0.5773074268	model's behavior
0.5772857545	simultaneously optimizing
0.5772810662	mean field theory
0.5772757306	previous result
0.5772661835	rigorous privacy
0.5772645999	efficiently train
0.5772032218	slower convergence
0.5771998771	lipschitz function
0.5771723693	quality monitoring
0.5771285794	demonstration data
0.5771285365	state action spaces
0.5770511569	sparse structures
0.5770110349	representative features
0.5769539188	node specific
0.5768788733	high dimensional predictors
0.5768698987	strongly convex case
0.5768230232	practical utility
0.5767777539	hyper parameter settings
0.5767746000	deep matrix factorization
0.5767557498	class information
0.5767433125	accelerate training
0.5767404933	random forest algorithm
0.5767190596	interpretability methods
0.5767170949	learning invariant representations
0.5767070223	single parameter
0.5766889300	multi class problems
0.5766748914	scalable methods
0.5765998571	dynamic factors
0.5765867341	latent gaussian process
0.5765574816	data intensive
0.5764957937	interaction data
0.5764785326	decision variables
0.5764463072	target signal
0.5764280647	drawn much attention
0.5764230365	end to end asr
0.5763821231	automatic detection
0.5763780138	rigorous mathematical
0.5763762907	quantitative structure
0.5763594548	nips 2017
0.5763333781	additive noise model
0.5762453177	white box adversarial
0.5762246536	understood theoretically
0.5762172334	regularized loss
0.5761833802	latent structures
0.5761408884	item cold start
0.5761231558	theoretical and empirical evidence
0.5760801544	speech emotion
0.5760343664	significant importance
0.5760198683	trial and error
0.5759752637	non iid
0.5759517029	wide application
0.5758935841	basic form
0.5758694370	information content
0.5758384887	important implications
0.5758384233	absolute errors
0.5758118208	past decades
0.5757738571	event related
0.5756635945	limit order
0.5756020578	connected layers
0.5755617635	nonparametric classification
0.5755616601	gained attention
0.5755565650	correct solution
0.5755374821	result demonstrates
0.5755293490	data movement
0.5755182852	dependent features
0.5755154148	learning problem
0.5755128824	spatial representation
0.5754996166	highly discriminative
0.5754972778	low false
0.5753740098	feature mappings
0.5752669782	autoencoder architecture
0.5752551943	likelihood estimators
0.5752473887	model class
0.5751861883	simple arithmetic
0.5751294518	predictive features
0.5751212788	algorithms enjoy
0.5751162688	average gradient
0.5750911053	higher dimensional space
0.5750772032	approach involves
0.5750519763	regression vector
0.5750517952	standard statistical
0.5750453280	consumption patterns
0.5750283311	sky survey
0.5750126051	linear mapping
0.5749498215	tensor factorization model
0.5749191517	high prediction accuracy
0.5748310728	experimental results validate
0.5748202821	measurement data
0.5748037893	achieve optimal
0.5747728711	mm algorithm
0.5747095933	paper advocates
0.5746977102	published results
0.5746474221	mean field variational inference
0.5746214730	implicit feedback data
0.5745963852	large databases
0.5745723148	accurately predicted
0.5745254484	multiple scales
0.5745021838	received relatively little attention
0.5744743158	pretrained network
0.5744730837	python based
0.5744236442	super linear
0.5744159050	reduces variance
0.5743538793	recent results
0.5743532963	problems involve
0.5743439412	boosted regression
0.5743435733	discriminating features
0.5743217943	mcmc scheme
0.5743165828	hot topic
0.5742879594	auc score
0.5741652458	continuous submodular
0.5741584748	improves robustness
0.5741525729	cross validation based
0.5741004491	standard mcmc
0.5740664829	b bit minwise
0.5740368362	fast approximation
0.5740167851	quasi newton algorithm
0.5740076364	ensemble approaches
0.5739479420	squares problem
0.5739186970	privacy properties
0.5738902512	probability model
0.5737937169	considerably outperforms
0.5737716419	optimum solution
0.5737448400	important issues
0.5737281873	application area
0.5736922784	an information theoretic perspective
0.5736578385	previous efforts
0.5736504265	causality based
0.5736490065	common subspace
0.5735924440	diagonal covariance
0.5735590630	deep learning framework
0.5735541057	tree structured data
0.5735529810	deep latent variable
0.5735235401	minimal communication
0.5735136042	bottom up
0.5734431191	substantially lower
0.5734130124	success probability
0.5733955791	k nn
0.5733352395	capture semantic
0.5733143420	media platforms
0.5732920536	learnt representations
0.5732524772	zero sum game
0.5731789984	polynomial approximation
0.5731573798	filtering approach
0.5731544354	acquired knowledge
0.5730944026	decision making and control
0.5730782238	hierarchical recurrent
0.5730667499	desired behavior
0.5730541512	nearest neighbor classifiers
0.5730538730	mixing weights
0.5729661931	empirical results suggest
0.5729639962	unsupervised adaptation
0.5729521359	instance dependent regret
0.5729389264	bandit learning
0.5729262923	long term forecasting
0.5728576418	discrete events
0.5728546739	structure property
0.5728239828	latent variable models
0.5728150551	travel time estimation
0.5727882038	detailed analysis
0.5727069196	action value function
0.5727064409	privacy analysis
0.5726593226	information coefficient
0.5726309899	perform inference
0.5726270134	differentiable functions
0.5725784047	fmri analysis
0.5725708862	predictive capabilities
0.5725437826	response patterns
0.5725244535	typically trained
0.5724487239	\ mathrm poly
0.5724352101	simulated and real world
0.5723951750	dual variables
0.5723534186	online clustering
0.5722854785	component functions
0.5722608300	train test
0.5722204329	mirror descent algorithm
0.5722112343	optimization formulations
0.5722106554	nonlinear observations
0.5721865598	magnitude based
0.5721685463	self attention
0.5721078527	iterative method
0.5721045559	training objectives
0.5720975822	dependent parameters
0.5720876268	related research
0.5720551704	total energy
0.5720482065	computational constraints
0.5720297135	representation capacity
0.5720143070	deploying machine learning
0.5720073032	analytical framework
0.5720055554	sparsity regularized
0.5720042723	optimal combination
0.5719961854	valued function
0.5719959730	causal estimation
0.5719933757	rbm model
0.5719572802	langevin monte
0.5719259437	private datasets
0.5719122675	neural dynamics
0.5718750726	individual patient
0.5718736857	constant learning rate
0.5718689479	face clustering
0.5718227590	mean field variational bayes
0.5717776987	dimensional embeddings
0.5717598900	reduce communication
0.5717419688	initial values
0.5717369464	treatment rules
0.5717109013	ensemble approach
0.5717108950	neural network structures
0.5716680791	independence model
0.5716215893	inference method
0.5716122367	based algorithm
0.5715955708	hierarchical topic
0.5715866913	background separation
0.5715512913	biased sampling
0.5715396640	relative contribution
0.5715379625	client data
0.5715098853	achieve superior
0.5714713732	the cancer genome atlas
0.5714436432	optimal matching
0.5714045409	data locality
0.5713770594	collapse issue
0.5713564971	fundamental tradeoff
0.5713558488	online setting
0.5713442802	number of communication rounds
0.5713384293	sensitive groups
0.5712967043	extremely expensive
0.5712388359	multi state
0.5712365615	single domain
0.5712291948	multi time scale
0.5712230186	temporal feature
0.5712209858	informative feature
0.5712061258	multiple subspaces
0.5711819188	underlying mdp
0.5711777831	adversarial regularization
0.5711728418	paradigm shift
0.5711626843	linear regression problem
0.5711527908	sure screening
0.5711427844	resulting estimates
0.5711247844	methods assume
0.5711076540	class prior
0.5711074090	convex penalty
0.5710979285	decision tree learning
0.5710968849	hybrid methods
0.5710422212	language tasks
0.5710211540	remain largely
0.5710120462	variant called
0.5709281811	baum welch algorithm
0.5708692771	inter and intra
0.5708337739	optimal rule
0.5708290395	contemporary applications
0.5708000087	free parameters
0.5707857798	semi supervised approach
0.5707608295	rl problem
0.5707291102	high diversity
0.5707119674	real world application
0.5706562689	point predictions
0.5706496213	regularization properties
0.5706088257	leibler divergence
0.5705874347	fashion mnist dataset
0.5705833829	challenging issue
0.5705685401	manifold approximation
0.5705379435	accelerated variant
0.5704921616	condition based
0.5704789547	voice separation
0.5704767373	dense matrix
0.5704175677	spectral bias
0.5704118514	dnn architecture
0.5704057444	learned classifier
0.5703703655	datasets demonstrate
0.5703205948	theoretical interpretation
0.5703184569	neurips 2018
0.5703164649	grows linearly
0.5703145258	approximate inference algorithms
0.5703121069	_ \ rm
0.5702705242	method attains
0.5702448730	explaining machine learning
0.5702359238	error estimate
0.5702240360	error function
0.5701697207	numerical comparisons
0.5701681989	prediction results
0.5701593483	high frequencies
0.5701109884	instruction following
0.5701060539	reasoning tasks
0.5701052579	theoretical performance
0.5700919930	kernel conditional
0.5700788763	anomaly detection framework
0.5700344943	trained classifiers
0.5700150940	active learning methods
0.5699980677	node classification and link prediction
0.5699945228	testing data
0.5699670878	bayesian meta learning
0.5699603999	robust representations
0.5699299562	large scale graphs
0.5699095299	deep learning approach
0.5698164303	sound classification
0.5698161877	iteration scheme
0.5697286554	current leading
0.5697183122	exploration efficiency
0.5696916618	distributional assumption
0.5696316865	specific tasks
0.5696041219	fully nonlinear
0.5695724270	sampling rates
0.5695267425	retrieval task
0.5694967972	truncated gaussian
0.5694906630	computational capabilities
0.5694022668	optimization tasks
0.5693813116	resting state functional
0.5693719449	probabilistic formulation
0.5693453679	higher auc
0.5693265400	consistent estimate
0.5692945203	standard cross entropy loss
0.5692895791	large scale nonlinear
0.5692883401	training step
0.5692808579	game environments
0.5692585673	sparse projection
0.5692468525	large scale graph
0.5692438175	convex concave saddle
0.5692065802	unified analysis
0.5691965815	transformation matrix
0.5691730878	sequence to sequence
0.5691405084	rank tests
0.5691385923	piecewise linear functions
0.5691232760	proportional hazards model
0.5691207055	uniform random
0.5691187591	ill posed
0.5691053295	dimensional exponential
0.5690764455	observed signals
0.5689730239	td error
0.5689554632	prediction risk
0.5689512120	classifying images
0.5688793387	computation power
0.5688744649	t distributed stochastic neighbor
0.5688186538	automatically generated
0.5688152077	multi source domain
0.5688089070	temperature parameter
0.5687912877	estimation error bound
0.5687592542	stability bounds
0.5687100420	extremely popular
0.5686629956	tree construction
0.5686587451	analysis techniques
0.5686490177	matrix theory
0.5686254716	bayesian additive
0.5686230843	missing completely at
0.5685939763	action pair
0.5685832146	highly challenging
0.5685602062	forward and backward
0.5685306722	derive minimax
0.5684731619	deep rl algorithms
0.5684546443	online em
0.5684336065	surprisingly simple
0.5684198662	class support vector machine
0.5683850305	community detection methods
0.5683152993	bootstrap based
0.5682961181	low end
0.5682185236	new york times
0.5682178591	meta test
0.5681592650	reference model
0.5681014458	article reviews
0.5680982874	distributed stochastic optimization
0.5680657139	efficient reinforcement learning
0.5680300695	proposed recently
0.5679958822	popular datasets
0.5679938077	basic question
0.5679621474	structural causal models
0.5679380774	variate gaussian
0.5679187458	prior approaches
0.5678923244	cnn pca
0.5678896044	increased performance
0.5678869222	fewer assumptions
0.5678110164	increasingly common
0.5677989433	baseline method
0.5677848380	specific cases
0.5677064414	computational scalability
0.5676746490	gradient complexity
0.5676190965	deep bayesian
0.5676003092	private federated learning
0.5675986131	training deep neural
0.5675967172	fundamental challenges
0.5675550911	asynchronous stochastic gradient
0.5675282236	hardware efficient
0.5675188533	overparameterized deep
0.5674955031	detection scheme
0.5674837640	scalable kernel
0.5674414485	data rich
0.5674352495	stein's unbiased
0.5673902718	compared methods
0.5673668854	information measures
0.5673109092	relative distance
0.5672379573	genre classification
0.5672208219	quantization based
0.5672187293	high flexibility
0.5671736915	close relationship
0.5671686710	approximate gradient
0.5671552207	future rewards
0.5670841522	stochastic gradient method
0.5670822679	drawing inspiration
0.5670382346	relevant labels
0.5670289275	race and gender
0.5670163021	stationary time series
0.5669954664	highly related
0.5669765532	inference speed
0.5669735518	answer questions
0.5669668148	contextual linear
0.5669540241	mcmc samples
0.5669492111	long term constraints
0.5669368913	unique challenge
0.5669281116	automated classification
0.5668860336	inverse mapping
0.5668788740	initial phase
0.5668381402	image pairs
0.5667723044	learn complex
0.5667625805	svm model
0.5667402288	consistency result
0.5666600254	construction process
0.5666341340	asymptotic limit
0.5665627307	important aspects
0.5665388965	initialization methods
0.5664961690	adaptively selecting
0.5664268177	data driven prediction
0.5663991940	source image
0.5663985159	generate realistic
0.5663135138	automatically search
0.5662736053	dialog state
0.5662685068	5 fold cross validation
0.5662530420	random feature model
0.5662441727	underlying topology
0.5662368287	principled approach
0.5662109878	intrusion detection system
0.5662059441	maximum marginal
0.5661693157	spatial context
0.5661603279	target label
0.5661295718	achieve comparable results
0.5661262321	state space model
0.5661125912	theoretical basis
0.5661049123	dota 2
0.5660667902	layer by layer
0.5660463868	state machines
0.5660329857	homogeneous networks
0.5660285662	reinforcement learning based
0.5659377927	method leverages
0.5659354098	online forecasting
0.5659268020	competition dataset
0.5659110920	natural language tasks
0.5658928798	integer linear
0.5658692771	intra and inter
0.5658431239	simulation framework
0.5657985094	inversely proportional to
0.5657807706	worst case complexity
0.5657542403	cross entropy method
0.5657530630	collaborative filtering algorithms
0.5657332699	gaussian mixture variational
0.5657253250	main goal
0.5657204438	high resolution image
0.5656044843	common assumptions
0.5655908172	year mortality
0.5655031701	proposed scheme
0.5654886795	statistical moments
0.5654584872	high dimensional data sets
0.5654430736	attack strategy
0.5654400906	data efficient
0.5654019224	real world tasks
0.5653945502	synthetic graphs
0.5653877988	marginal posterior
0.5653735063	higher resolution
0.5653725373	dropout technique
0.5653638520	initialization strategy
0.5653024030	automatically identifying
0.5652959892	mean square
0.5651592609	interpolation method
0.5651353353	cnn training
0.5651328708	neural units
0.5651319947	recent methods
0.5651317715	monte carlo sampler
0.5651261926	increased attention
0.5650734324	well behaved
0.5650451786	generalization risk
0.5649824423	sample complexity bound
0.5649643260	deep deterministic
0.5649625761	flow based generative models
0.5649522471	design matrices
0.5649405599	trained dnn
0.5649402764	unsupervised classification
0.5649312601	approach called
0.5649145190	search procedure
0.5649123406	noise regime
0.5649008416	anomaly detection problem
0.5648379472	selected subset
0.5648057715	resulting policies
0.5647728983	lower dimensional representation
0.5647632928	population structure
0.5647426560	key element
0.5647421048	bound holds
0.5647330654	linear matrix
0.5647153877	real world traffic
0.5646968575	validation procedure
0.5646506274	proposed model
0.5646489913	signal sparsity
0.5646080932	cognitive state
0.5646079551	squares loss
0.5645977404	theoretical explanation
0.5645912049	alphago zero
0.5645632060	multiple steps
0.5645319978	virtual adversarial
0.5644947933	gaussian markov
0.5644929877	learning node representations
0.5644730881	high computational
0.5644460563	step greedy
0.5643663107	datasets confirm
0.5643410414	algorithm's performance
0.5643271342	hard combinatorial
0.5643133224	min max problems
0.5642629975	unbalanced datasets
0.5642055121	separation problem
0.5641605682	fully nonparametric
0.5641586700	accurate forecasting
0.5641321956	sampling theory
0.5641036235	deep residual network
0.5640917735	labelled and unlabelled
0.5640377338	provide guidance
0.5639900288	unknown low rank matrix
0.5639615459	lee et al
0.5639546614	metric learning algorithms
0.5639427455	mixture prior
0.5639398624	research attention
0.5639396646	edge based
0.5638045462	reward environments
0.5637933204	intuitive interpretation
0.5637691546	loss terms
0.5637256425	proposed algorithm
0.5636818431	object based
0.5636764121	distributed deep
0.5636554121	provide rigorous
0.5636379355	high dimensional time series
0.5636143491	kernel based regression
0.5635713595	discrete cosine
0.5635505158	least mean squares
0.5635441151	data generating process
0.5635259911	improve accuracy
0.5634953767	natural metric
0.5634513186	finite time convergence
0.5633849670	deep structured
0.5633740935	carlo dropout
0.5632744527	standard training
0.5632516838	node clustering
0.5631937718	recovery threshold
0.5630687396	risk consistency
0.5630362403	nonlinear interactions
0.5630190394	model free and model based
0.5629453752	key ideas
0.5629135318	spatio temporal prediction
0.5628994836	infinite dimensional space
0.5628974147	theory suggests
0.5628793313	offline experiments
0.5628195500	image manifold
0.5628147786	third party
0.5627847575	training iterations
0.5627678534	generative neural
0.5627122156	guarantees hold
0.5627101292	distributed online
0.5626949226	generalized matrix
0.5626904572	importance weight
0.5626821021	humans and animals
0.5626763074	lasso problems
0.5626749805	multi group
0.5626414721	performing inference
0.5626259013	non negative matrix
0.5626250801	bayes estimation
0.5626176879	laplacian based semi supervised learning
0.5625916128	class activation
0.5625557583	random subsets
0.5625150924	output labels
0.5624630535	learning efficiency
0.5624620480	large number
0.5624562294	trust region policy
0.5623731813	exponential dependence
0.5623416791	deep transfer
0.5623025799	discovery process
0.5622516160	learning procedure
0.5622135822	overparameterized networks
0.5621934651	accelerated convergence
0.5621778495	linear transform
0.5621584600	t sne
0.5621299053	gradient mcmc
0.5621224887	network configuration
0.5621162062	norm constraints
0.5620746737	significantly easier
0.5620405861	few shot learning
0.5619996992	deep representation
0.5619711785	sparse hierarchical
0.5619202779	deep latent
0.5619192212	poisoned data
0.5619085113	gene networks
0.5618392901	explaining predictions
0.5617834112	kernel based tests
0.5617382763	learning from label proportions
0.5616868440	feature matrix
0.5616812470	convergence theory
0.5616479739	final clustering
0.5616079771	hierarchical reinforcement
0.5615592857	original network
0.5615523883	high dimensional vector
0.5615295021	learned jointly
0.5615233955	taking into consideration
0.5614974671	bounds hold
0.5614898169	popular algorithms
0.5614861889	based method
0.5614589364	trades off
0.5614452338	high dimensional problems
0.5614250014	machine learning and data mining
0.5614207596	easy to interpret
0.5614152879	future predictions
0.5614077707	machine learning algorithm
0.5613726974	armed bandit problems
0.5613688228	public benchmark
0.5613625350	fusion approach
0.5613582645	primal dual algorithms
0.5613581573	non stationary
0.5612910538	bandit model
0.5612404027	multiscale graph
0.5612229501	near neighbor search
0.5611863224	meta learning approaches
0.5611526473	modern datasets
0.5611357386	quadratic function
0.5611338631	learning policies
0.5611245169	effectively handle
0.5611091341	noise model
0.5611020324	recurrent structure
0.5610773570	key assumption
0.5610727139	class classification
0.5610402243	single objective optimization
0.5610396450	extreme points
0.5610105177	highly desired
0.5609684634	computationally efficient manner
0.5609627235	early classification
0.5609621065	distributed implementation
0.5609539406	methods require
0.5609112107	proposed technique
0.5609018465	multiple subjects
0.5608140581	method performs
0.5607957527	visual analysis
0.5607502821	compositional data
0.5606963595	efficiently represent
0.5606897807	positive or negative
0.5606836839	visual inputs
0.5605959853	problem involving
0.5605437521	jointly estimating
0.5604948436	method enables
0.5604844761	tighter lower
0.5604158573	based speech enhancement
0.5604073973	regression forests
0.5604030081	preconditioned stochastic
0.5603999256	worst case error
0.5603994852	generative classifiers
0.5603991622	learning approaches
0.5603247021	selection techniques
0.5603033126	rigorous theoretical
0.5602902855	supervision signal
0.5602883161	classification and semantic segmentation
0.5602599912	binary classification tasks
0.5602305942	temporal relations
0.5602292496	state sequence
0.5602269355	black box inference
0.5602039425	proposed methods
0.5602010128	integrate and fire neurons
0.5601956534	unknown noise
0.5601821021	encoders and decoders
0.5601509755	n grams
0.5601482825	linear cca
0.5600720256	approach enables
0.5600669055	order markov
0.5600593064	simulation environment
0.5600567006	quality evaluation
0.5600355528	intractable posterior
0.5599704234	parallel distributed
0.5599393248	optimization problems arising
0.5599343141	inverse probability
0.5598648643	residual neural network
0.5598374385	individual and group fairness
0.5597871615	black box nature
0.5597795928	estimator achieves
0.5596947898	original image
0.5596373084	multi layer networks
0.5596093251	theoretical development
0.5595738048	similar properties
0.5595403214	informative samples
0.5594895741	traditional classifiers
0.5594438139	soft q learning
0.5593794213	rich representations
0.5593547000	high dimensional domains
0.5593523727	binary and multi class
0.5593490075	linear representation
0.5593296360	manual design
0.5593085393	multi armed bandit setting
0.5592994292	deep anomaly detection
0.5592766751	mixture of gaussians
0.5591586827	residual sum of squares
0.5591153668	key question
0.5591049513	increasing complexity
0.5590796437	quantitative measures
0.5589978055	empirical comparison
0.5589876150	approximately low rank
0.5589533161	successful applications
0.5589472087	hypothesis testing problem
0.5589376360	entire sequence
0.5589067426	learning setting
0.5588775196	consensus optimization
0.5588254450	qualitative and quantitative
0.5587691263	demonstrated experimentally
0.5587579100	local datasets
0.5586890368	stochastic optimization problems
0.5586790671	algebraic structure
0.5585939193	selection and hyperparameter tuning
0.5585600630	long temporal
0.5585584699	model free deep reinforcement learning
0.5584488504	anomaly data
0.5584266341	classification decisions
0.5584190601	smooth function
0.5584122727	data structure
0.5583983887	individual samples
0.5583400114	wasserstein distributionally
0.5583385497	integrating multiple
0.5583337850	near optimal
0.5582243817	attack method
0.5582228140	promising research
0.5582060729	recurrent neural network architectures
0.5581218412	efficient approximate inference
0.5580628449	bayesian reinforcement learning
0.5580619256	inductive learning
0.5580377512	information maximizing
0.5580153623	based pruning
0.5580106672	gaussian process state space
0.5579872296	spectral properties
0.5579532835	experiments validate
0.5579438788	favorable results
0.5578608558	diffusion model
0.5578331486	equivariant networks
0.5578302514	complex real world
0.5578277612	low rank tensor decomposition
0.5578071725	study demonstrates
0.5577859981	direct causal
0.5577835095	computationally scalable
0.5577533569	relational structure
0.5577097754	noise transition
0.5576892357	optimal weights
0.5576820270	decision problem
0.5576679880	online algorithm
0.5576370791	complex problems
0.5576294366	relevance vector
0.5576009714	mnist benchmark
0.5575483169	population loss
0.5575472105	graph diffusion
0.5574810005	off policy
0.5574789699	curse of dimensionality
0.5574687454	free continual
0.5574429704	embedding dimensions
0.5574074783	ensemble technique
0.5574063753	task losses
0.5573819508	trained independently
0.5573748405	bandit policies
0.5573744101	matrix factorization problems
0.5573734042	experiments illustrate
0.5573564059	noise ratios
0.5573434863	mathematical model
0.5573425467	uniform noise
0.5573317945	contextual bandit learning
0.5573236693	non uniform sampling
0.5573164199	speech features
0.5572889753	tool called
0.5572756991	gradient descent step
0.5572592862	method employs
0.5572448035	rate schedules
0.5572155853	stabilize training
0.5571986398	linear response
0.5571935586	multi task gaussian processes
0.5571844578	generalized inverse
0.5571832649	memory cells
0.5571764457	imaging techniques
0.5571300518	applying deep learning
0.5569660380	gan variants
0.5569602442	critical role
0.5569093044	experiment shows
0.5569074394	approximate maximum
0.5568987060	effectively solve
0.5568856487	coefficient of determination
0.5568793107	training datasets
0.5568553580	important properties
0.5568528004	input speech
0.5568504375	mathematical tools
0.5567537455	sparse dnns
0.5567517003	memory module
0.5567049974	nonconvex objectives
0.5566884391	nonlinear state space models
0.5566820468	test inputs
0.5566739411	linear regression setting
0.5566716594	oracle access
0.5566601316	generating samples
0.5565904037	learning stage
0.5565766740	few shot image classification
0.5565451145	representation power
0.5565168482	news detection
0.5565074044	allocation problems
0.5564592411	standard metrics
0.5564503441	term memory
0.5563849500	health conditions
0.5563608016	log marginal likelihood
0.5563453947	climate model
0.5563288389	empirically study
0.5563218674	one hot encoding
0.5562168126	algorithmic techniques
0.5560442249	successfully trained
0.5560254197	key concept
0.5560150299	primal dual algorithm
0.5559966666	response times
0.5559862537	model flexibility
0.5559687835	sgd with momentum
0.5559640083	method generates
0.5559183743	black box model
0.5558858302	substantially smaller
0.5558297344	equivariant neural
0.5558234766	quantum experiments
0.5558218699	statistical machine
0.5557936541	dynamic bayesian network
0.5557929349	proposed framework
0.5557562867	point process model
0.5557447471	computational resource
0.5556946891	smooth problems
0.5556909048	non uniformly sampled
0.5556747957	discriminative representation
0.5555916453	convergence rate analysis
0.5555650251	data driven modeling
0.5555469728	achieves high
0.5555452419	adversarial attacks and defenses
0.5555343009	ml ai
0.5555109794	defense against
0.5554680606	output classes
0.5554575464	factorization problem
0.5554569679	derive lower bounds
0.5554540353	overcoming catastrophic
0.5554411419	akaike information
0.5554086790	hinge loss function
0.5553807122	increasing importance
0.5553795309	outperforms existing methods
0.5553615417	considerable improvement
0.5553521854	successfully train
0.5552866037	experiments showed
0.5552414601	article describes
0.5551770558	cross sectional data
0.5551700154	detection technique
0.5551559742	comprehensive comparison
0.5551288756	batch algorithms
0.5550374450	performance scores
0.5549591114	gradient evaluation
0.5549179850	biased stochastic
0.5549177561	outperforms baseline
0.5548786068	constructing confidence
0.5548273596	lda model
0.5548241871	convex problem
0.5548195686	asymptotic error
0.5547479968	cifar 10 100
0.5547288566	whole genome
0.5547115169	estimation methods
0.5546023338	collaborative training
0.5545356174	dqn algorithm
0.5544887776	univariate and multivariate
0.5544085448	seq2seq model
0.5543614811	remote sensing data
0.5543540827	training set size
0.5543519034	learning latent representations
0.5543504906	exploitation tradeoff
0.5543395619	entropy discrimination
0.5543371860	future studies
0.5542221192	random subset
0.5541921557	classification results
0.5541886697	sample efficient reinforcement
0.5541819555	great practical
0.5541273368	greater accuracy
0.5541147500	related source
0.5541128577	joint policy
0.5540192415	inherent structure
0.5539759823	achieve lower
0.5539357541	decision making problem
0.5539065211	training rnns
0.5538761064	large scale data
0.5538423098	supervised dimension
0.5538371315	connectivity matrix
0.5538105884	planning algorithm
0.5537827834	performance gap
0.5537805193	structure underlying
0.5537240672	expected information gain
0.5536838121	task structure
0.5536598856	estimation technique
0.5536265629	task embedding
0.5535929419	variational gaussian process
0.5535879195	latent distributions
0.5534205795	substantially faster
0.5533566085	model families
0.5533441433	extract meaningful
0.5533242727	probabilistic bounds
0.5533206864	model called
0.5532803189	graph guided
0.5532732016	deep gaussian
0.5532117395	discrete optimization problem
0.5531986824	student learning
0.5531782182	previous experience
0.5531671581	statistical testing
0.5531153596	decision based
0.5530367723	sim to real
0.5530145013	invariant feature
0.5529813367	extensive experimental evaluation
0.5529673635	goal based
0.5529630656	individual layers
0.5528885168	possibly non smooth
0.5528764975	constrained least squares
0.5528763661	automatically discover
0.5528625053	recognition challenge
0.5528248296	ill suited
0.5528022058	methods exist
0.5527636287	imagenet datasets
0.5527313834	resnet 20
0.5526983834	heterogeneous tasks
0.5526800790	distributed reinforcement learning
0.5526742152	variational graph
0.5526126709	gan model
0.5526075160	convolution neural
0.5525695872	higher order statistics
0.5525680454	iteration number
0.5525473577	variance reduced methods
0.5525356124	test dataset
0.5525214233	performed efficiently
0.5525181454	nonparametric kernel
0.5524774930	bayesian recurrent
0.5524548820	forecasting problem
0.5523825009	dimensional tensors
0.5522396229	extensive experiments demonstrate
0.5522250112	resource languages
0.5521750799	fundamental importance
0.5521431384	future values
0.5521428877	mnist and omniglot
0.5521342249	guarantees convergence
0.5521179978	age related
0.5520578701	computer science
0.5520567339	carlo simulations
0.5519968731	clinical features
0.5519963978	derive sufficient conditions
0.5519433089	joint probabilistic
0.5519003251	walk based
0.5518632624	forecasting model
0.5518538218	model bias
0.5518087003	large domains
0.5517410157	one class classification
0.5517351161	learning method
0.5517326162	small constant
0.5517032382	rank estimation
0.5516351046	input representation
0.5516255358	specific instance
0.5515985104	multiple diverse
0.5515805888	processing tasks
0.5515005704	spectral representation
0.5514786775	predicted class
0.5513833938	multidimensional time series
0.5513520181	hierarchical clustering method
0.5513331839	bayesian mixture
0.5513221864	gradient lipschitz
0.5512401825	matrix factorization problem
0.5512037920	manifold embedded
0.5511749031	method combines
0.5511561154	shows great
0.5510748773	anomaly detection algorithms
0.5510618020	image embedding
0.5510456569	jointly training
0.5510275749	linear inequality
0.5509778471	discriminative classifiers
0.5509542591	cs algorithms
0.5508834683	high dimensional regime
0.5508758141	predicting missing
0.5508611364	de biased
0.5508561968	temporal behavior
0.5508445013	digital signal
0.5508323807	multiple workers
0.5508044874	accurate estimates
0.5507340536	meta information
0.5507193232	overfitting issue
0.5507053913	temporal consistency
0.5506684173	active users
0.5506256944	computation efficient
0.5506239847	parametric family
0.5505915122	designing optimal
0.5505505184	scientific problems
0.5505489215	provide valuable
0.5505431762	reinforcement learning algorithm
0.5505193584	order of magnitude
0.5505033823	video processing
0.5505032768	kernel regime
0.5504310825	dual graph
0.5504305674	optimal actions
0.5503678214	clinical time series
0.5503583789	rigorous statistical
0.5503141015	numerical experiments demonstrate
0.5502407081	classification setting
0.5502368652	encoded features
0.5502156763	error term
0.5501764879	orders of magnitude fewer
0.5501709422	enable efficient
0.5501672794	region of competence
0.5501285187	scalable alternative
0.5501243958	classification method
0.5501222163	root cause
0.5501129492	achieve similar performance
0.5500690122	specific factors
0.5500506019	structured domains
0.5500467067	graph convolutional neural network
0.5500406326	distillation framework
0.5500403099	driving vehicles
0.5500165511	one shot
0.5500134890	matrix factorization methods
0.5499568166	major research
0.5499422613	unknown true
0.5499336816	handling missing
0.5499152908	decision functions
0.5498779742	open dataset
0.5497949588	agent policy
0.5497730669	quality measures
0.5497354941	filter design
0.5497326842	learned reward
0.5497200026	rank correlation
0.5496660253	existing results
0.5496479731	large matrices
0.5496473041	simultaneous optimization
0.5496455905	time series forecasting
0.5496385213	near duplicate
0.5495936489	underlying data generating
0.5495828990	primal dual method
0.5495727007	language modeling task
0.5495067948	coordinate optimization
0.5494982882	distance weighted
0.5494919567	experimentally evaluated
0.5494549357	structural causal
0.5494421976	transferability of adversarial examples
0.5494372169	embedded features
0.5493880177	steps required
0.5493004660	distinct classes
0.5492981343	applications require
0.5492888237	unified approach
0.5492790598	extremely powerful
0.5492244870	bayes optimal classifier
0.5492018000	wide applications
0.5491736273	improved quality
0.5491686233	non linearities
0.5491602011	varying complexity
0.5491597309	noise added
0.5491551946	td methods
0.5491004653	explainable deep
0.5490978981	graph embedding techniques
0.5490848324	lower dimensional space
0.5490328680	nonparametric mixture
0.5490205165	representation theory
0.5490163212	important advantage
0.5489683659	compact support
0.5489342836	discriminative model
0.5489179034	style algorithm
0.5489077528	distance matrices
0.5489030398	approximately solving
0.5488986229	space efficient
0.5488529043	theoretical study
0.5487909364	causal discovery algorithm
0.5487486226	attribution method
0.5487100971	massive open online
0.5486846885	meteorological data
0.5486272182	nonlinear effects
0.5485759157	jointly optimized
0.5485716880	stationary covariance
0.5485627098	applications involving
0.5485582958	careful analysis
0.5485580472	enhanced sampling
0.5485511846	mentioned above
0.5485459554	two sided
0.5485044334	standard assumptions
0.5484646430	improved stability
0.5484584937	syntax trees
0.5484453448	deep feed forward
0.5484392909	decentralized algorithms
0.5484306290	few shot classification
0.5483745267	disentanglement learning
0.5483717375	threshold functions
0.5483285007	existing tools
0.5482801078	general case
0.5482332288	experimental findings
0.5482148597	effective representations
0.5481915359	distributed algorithm
0.5481824441	optimal point
0.5481600274	human vision
0.5481209304	local polynomial
0.5481028238	identifying relevant
0.5480782984	variational approach
0.5480519759	large and high dimensional
0.5480464001	neural network robustness
0.5480364940	probabilistic principal
0.5479428411	continuous data
0.5479212079	marginal inference
0.5478631629	second order
0.5478448917	estimation algorithm
0.5478428693	dimensional subspace
0.5477890579	multi agent tasks
0.5477593110	entire input
0.5477195488	cnn classifier
0.5477049163	hashing methods
0.5476685427	standard sgd
0.5476395761	dimensional latent space
0.5476339981	cross features
0.5476233358	structural data
0.5475892587	classification and feature selection
0.5475322121	subspace spanned
0.5475283699	classifier outperforms
0.5475079410	sign based
0.5474574437	maximum likelihood method
0.5473858058	eigenvalues and eigenvectors
0.5472893900	humans learn
0.5471395574	efficiently solving
0.5470907179	runtime performance
0.5470715098	gnn model
0.5470585184	automated machine
0.5470249098	completely random
0.5469978441	naive bayes model
0.5469931150	existing implementations
0.5469908897	nonlinear mapping
0.5469497166	energy constrained
0.5469073988	off policy policy gradient
0.5468983314	rows and columns
0.5468965495	spike and slab prior
0.5468671644	incorporating multiple
0.5468523055	convolution networks
0.5468270904	quickly learn
0.5468177402	distributional reinforcement
0.5468078427	meaningful representation
0.5467092452	machine learning approach
0.5466434146	previous knowledge
0.5466415538	integrative analysis
0.5466378858	continuous monitoring
0.5465970231	data availability
0.5464941225	movement data
0.5464785611	weighted least squares
0.5464444250	mathematically equivalent
0.5464127210	solving optimization problems
0.5463816824	large learning rate
0.5463731685	supervised learning tasks
0.5463633534	multi domain learning
0.5463404841	network learns
0.5463294945	feature label
0.5463041499	learning long term dependencies
0.5462929293	non convex optimization
0.5462459581	independent random
0.5462339920	learning bayesian networks
0.5462246188	including mnist
0.5462215076	large scale benchmark
0.5461688878	worst case scenario
0.5461686575	target space
0.5461240088	key limitations
0.5460950591	random sample
0.5460547226	pairwise loss
0.5460420008	performing regression
0.5460331604	bayesian logistic
0.5460320632	sequential decision making tasks
0.5460190529	relative improvements
0.5460143692	model architectures
0.5459444399	density model
0.5459036333	high computational complexity
0.5458969305	reinforcement learning methods
0.5458883482	practical setting
0.5458875549	user study
0.5458676809	technical challenge
0.5458608523	partial knowledge
0.5458277935	shows promising results
0.5458245840	adversarial behavior
0.5458122942	cause effect
0.5456995017	draw inspiration
0.5456839702	comprehensive evaluation
0.5456572422	top down
0.5456523703	max margin learning
0.5456344192	discrete objects
0.5456041977	invariant and equivariant
0.5455773329	provably converges
0.5455715603	gradient aggregation
0.5455562239	learning mechanism
0.5454961441	content recommendation
0.5454746120	multi relational data
0.5454697909	standard em
0.5454400149	e commerce platform
0.5454371062	convolution based
0.5453886848	sampling pattern
0.5453755525	traditional clustering
0.5453474357	approaches tend
0.5453382985	numerical results demonstrate
0.5453353471	fixed probability
0.5453167125	stochastic gradient based
0.5453116412	nonparametric methods
0.5453085612	improved efficiency
0.5452597240	binary classification problem
0.5452390886	linear minimization
0.5451765528	results extend
0.5451646373	business applications
0.5451323240	data driven discovery
0.5451050848	learned model
0.5450875333	bayesian perspective
0.5450741527	defenses against
0.5450498698	complex data distributions
0.5450341005	strongly related
0.5450124092	subspace clustering methods
0.5450081182	latent components
0.5450067777	expected gradient
0.5449879805	deep neural network classifiers
0.5449810637	interpretable latent
0.5449705463	healthcare domain
0.5449614062	input distribution
0.5448985908	gp based
0.5448949475	multi modal distributions
0.5448436026	target environment
0.5448104859	parameter dependent
0.5448099772	neural computation
0.5447943232	early identification
0.5447642538	uniformly at random
0.5446830373	exponential family distribution
0.5446698124	input parameters
0.5446322504	deep neural architectures
0.5445791108	leverage score
0.5445629307	vision problems
0.5445626764	ai research
0.5445586377	accelerated version
0.5445155536	set sizes
0.5444986578	spectral clustering algorithm
0.5444745648	selection algorithms
0.5444383095	smooth case
0.5444338401	identifying important
0.5444048828	meta learning framework
0.5443428056	computationally efficient algorithm
0.5443054218	performance advantages
0.5442772633	wasserstein generative adversarial
0.5442240819	continuous state and action spaces
0.5442027714	arbitrary accuracy
0.5441969576	achieved higher
0.5441929526	black box variational
0.5441752606	multi task feature
0.5441728849	standard ml
0.5441386959	monte carlo approximation
0.5441264121	16 bit
0.5440829960	natural sciences
0.5440691801	sample efficient reinforcement learning
0.5440448983	dynamic model
0.5440285558	typically involve
0.5439713083	achieving high accuracy
0.5439316597	trained policies
0.5438767755	minimax problem
0.5438759891	training generative adversarial networks
0.5438746286	limited observations
0.5438619267	based regularization
0.5438599119	sample set
0.5438070001	local context
0.5437997457	approach leverages
0.5437992029	u statistic
0.5437948452	neural ordinary
0.5437928217	capture complex
0.5437752843	estimation techniques
0.5437670656	clustering solution
0.5437454507	offline learning
0.5437218962	sparse high dimensional
0.5437177124	deep learning model
0.5437124308	human user
0.5436122185	relative importance
0.5435771100	multi label classifier
0.5435641580	nonparametric density
0.5435108481	vanishing gradient problem
0.5434784228	purely observational
0.5434754013	true target
0.5433038239	data generating mechanism
0.5432613986	model's parameters
0.5432405656	context based
0.5432279859	efficient projection
0.5431586901	dynamic interactions
0.5431002809	manipulation task
0.5430687320	computational challenge
0.5430566458	general graphs
0.5430447393	aggregation method
0.5430362678	empirically demonstrated
0.5430096512	underlying mechanisms
0.5429830277	conditioned policies
0.5429497423	deep active learning
0.5428799730	machine learning and artificial intelligence
0.5428771037	graph cnns
0.5428547761	robust reinforcement learning
0.5428015508	critical threshold
0.5427970998	low precision training
0.5427928370	tasks including
0.5427880720	de noising
0.5427837398	reinforcement learning agent
0.5427716628	linear correlation
0.5427590879	benchmark datasets demonstrate
0.5427272103	semi synthetic data
0.5426196012	remains limited
0.5426006072	deep generative networks
0.5425730291	union of subspaces
0.5425624789	relative reduction
0.5425555967	real world settings
0.5424480169	relevant parameters
0.5424362797	data parallel
0.5424245829	attention map
0.5423858058	researchers and engineers
0.5423667543	monte carlo method
0.5423528983	approximation rates
0.5423434298	methods fail
0.5423330900	non commutative
0.5423183575	nonsmooth optimization
0.5422781620	8 bit
0.5422647203	semantic embedding
0.5421688354	predictive control
0.5421238754	multiple components
0.5420840877	single target
0.5420653304	optimality properties
0.5420600895	simulated scenarios
0.5420187536	computational model
0.5419759712	clustering framework
0.5419659638	data release
0.5419287613	model ensembles
0.5419279089	image generation tasks
0.5418814501	recent deep learning
0.5418693943	lower dimension
0.5418629067	complex environment
0.5418387353	automatically identify
0.5418316601	linear dimensionality
0.5418005207	guaranteed to converge
0.5417468599	reinforcement learning research
0.5417330700	data sites
0.5415984936	regularization framework
0.5415498034	strong dependence
0.5415459412	causal ordering
0.5415109694	key questions
0.5415028643	engineering problems
0.5414802535	survey paper
0.5414656623	localization problem
0.5414562767	enjoys strong
0.5414124191	achieve comparable performance
0.5413836401	speech detection
0.5413457899	\ url https
0.5413447737	robust machine learning
0.5412352694	fine grained analysis
0.5411964081	experimental results verify
0.5411677341	privacy preserving machine learning
0.5411164438	cnn inference
0.5411149139	computation efficiency
0.5410936152	memory units
0.5410303103	discrepancy based
0.5409839924	link prediction problem
0.5409822652	factorization based
0.5409278804	asymptotically equivalent
0.5408216533	natural conditions
0.5407957256	random forest classifier
0.5407826611	layer neural networks
0.5407665859	fast estimation
0.5407540671	planning problems
0.5407082246	processing steps
0.5407053688	exponential distributions
0.5406979608	processing and machine learning
0.5406886228	categorical attributes
0.5406527541	mean field limit
0.5406170103	large scale applications
0.5405288645	heuristic algorithm
0.5404929133	state tracking
0.5403936581	metric called
0.5403900148	data transformation
0.5403858548	distributed parameter
0.5403690325	future development
0.5403481441	sparse identification
0.5403243383	privacy preserving deep learning
0.5402968574	label dependent
0.5402452241	non gaussian component analysis
0.5402263521	nonlinear dimensionality
0.5401719143	item features
0.5401467168	meaningful latent
0.5401045166	method reduces
0.5400848290	cpu and gpu
0.5400735160	generate adversarial examples
0.5400643678	form statistics
0.5399773165	modeling uncertainty
0.5399231686	learning vector quantization
0.5398597088	rule learning
0.5398043806	reasonable assumptions
0.5397312584	based model
0.5396826941	previously established
0.5396226300	zero sum
0.5395899992	gcn model
0.5395862435	error control
0.5394692813	decision making tasks
0.5394571534	new york
0.5394033089	reduction scheme
0.5393318595	gradient descent dynamics
0.5392443960	efficiently estimate
0.5391764358	game theoretic approach
0.5391502652	parameter perturbations
0.5390118617	transport problem
0.5389925483	constraints imposed
0.5389392146	latent dimension
0.5388927048	behavior policies
0.5388329568	discrete probability
0.5387702277	defending adversarial
0.5386758261	almost surely
0.5386158781	key elements
0.5386133432	white gaussian
0.5386037134	positive rates
0.5385876026	separation performance
0.5385816318	accurate recovery
0.5385589992	handle missing data
0.5385279277	shown great potential
0.5384442544	based techniques
0.5383860209	defenses against adversarial
0.5383787700	node set
0.5383337708	relevant baselines
0.5382944259	challenging issues
0.5382804575	meta transfer
0.5382436292	model free algorithms
0.5382295478	multi subject fmri data
0.5382039321	error terms
0.5381898356	provide detailed
0.5381802346	sensitive domains
0.5381382729	iterative soft
0.5380845870	effectively reduces
0.5380404092	central idea
0.5380187024	game environment
0.5380093557	b spline
0.5380088654	reconstruction network
0.5379969332	generate diverse
0.5379859418	underlying matrix
0.5379421671	scaling factor
0.5379110963	exact computation
0.5378927128	global features
0.5378796144	random input
0.5378791055	sparse clustering
0.5378490182	fitting error
0.5378453032	segmentation problems
0.5378445308	programming approach
0.5377274711	similar conditions
0.5377180006	multiple channels
0.5377048279	classification systems
0.5376842122	sample complexity analysis
0.5376460824	resonance images
0.5375886522	prediction score
0.5375512039	mixture weights
0.5375244589	information divergence
0.5374699665	real world machine learning applications
0.5374195457	transition point
0.5373746173	zero shot learning
0.5373613980	draw inspiration from
0.5372849619	independently distributed
0.5372764703	free parameter
0.5372702926	based intrusion
0.5372662662	largely open
0.5372185688	pairwise interaction
0.5371956759	global context
0.5371930613	level annotations
0.5371610697	functional optimization
0.5371608879	solution methods
0.5371457663	integral probability
0.5371449377	process model
0.5371135359	stationary solutions
0.5371020469	non parametric
0.5370976130	directly learns
0.5370547688	important applications
0.5369870289	explicit convergence rates
0.5369509664	random walks on graphs
0.5369418063	model based approaches
0.5369255395	data driven methods
0.5368621715	recognition performance
0.5368450877	big data problems
0.5367748098	greedy optimization
0.5367738706	stochastic gradient algorithm
0.5367433890	dimensionality reduction method
0.5367121278	received signals
0.5366981289	reasonable performance
0.5365827463	clinical decision
0.5365723875	self driving
0.5365004943	non gaussianity
0.5364850854	computation resources
0.5364583685	size grows
0.5364188410	high dimensional gaussian
0.5364127984	gaussian latent
0.5363423261	yield improved
0.5363298683	noisy inputs
0.5363024384	extremely important
0.5362972067	drl algorithm
0.5362127328	common benchmarks
0.5362068428	front end
0.5362053581	semi stochastic gradient
0.5360890781	existing metrics
0.5360660823	significant features
0.5360628840	numerical scheme
0.5360566038	physical process
0.5359941722	compromising accuracy
0.5359822211	complex biological
0.5359777803	statistical measures
0.5359533899	achieve excellent
0.5359460863	fully convolutional neural
0.5358376688	glue benchmark
0.5358351438	individual functions
0.5357530772	modeling strategy
0.5357435412	experimental comparison
0.5357189017	measure called
0.5356764658	approximation ability
0.5356493276	penalized logistic
0.5356182192	level representations
0.5355405526	unsupervised methods
0.5355339504	time varying
0.5354890747	individual nodes
0.5354834582	successful training
0.5354452056	computationally simple
0.5353790876	explainable deep learning
0.5353224034	meta graph
0.5353101836	classification and regression trees
0.5351416970	clustering high dimensional data
0.5351255452	automatic evaluation
0.5350993644	algorithm succeeds
0.5350543283	distributed online learning
0.5350345804	arbitrary size
0.5350044613	error minimization
0.5349623384	statistical and machine learning
0.5348868631	motion data
0.5348802037	optimization problems involving
0.5348567595	variational recurrent
0.5348278596	physics informed neural
0.5347498865	test errors
0.5347056980	graph based clustering
0.5346848981	inference model
0.5346818629	synthetic and real world data sets
0.5346462502	relevant feature
0.5346323576	sample sets
0.5345724858	supervised ml
0.5345267674	prone to overfitting
0.5344589650	mean average precision
0.5344535259	one sided
0.5344258449	multi label text
0.5344230269	community detection problem
0.5344195324	experiment results demonstrate
0.5344161638	convex minimization problems
0.5343859609	state machine
0.5343692947	statistical tool
0.5343546623	problem sizes
0.5343538218	difference of convex functions
0.5343522286	finding optimal
0.5343262317	sample means
0.5342780138	spectral domain
0.5342579527	backpropagation based
0.5342184697	low and high dimensional
0.5342138527	handle complex
0.5341902796	m dsgd
0.5341576789	machine learning researchers
0.5341459630	statistics and machine learning
0.5341281461	dependent bounds
0.5340922941	highly sensitive
0.5340894505	open source implementation
0.5340819924	imagenet classification
0.5340365141	real world and synthetic
0.5339914393	nonlinear optimization
0.5339653372	consistency properties
0.5338971032	scalable gaussian process
0.5338651456	based nas
0.5338551613	approximate inference algorithm
0.5338360699	finite sample performance
0.5338341958	node classification tasks
0.5338270904	sampling distributions
0.5338087521	recommendation model
0.5337966766	maximum likelihood objective
0.5336481872	patient risk
0.5335653385	action dependent
0.5335388559	robustness properties
0.5335229555	classification performances
0.5335129844	ai algorithms
0.5335089960	machine learning and statistical
0.5334787082	graph neural network based
0.5334504775	semi supervised methods
0.5334500725	consistency guarantees
0.5334190028	joint loss
0.5333968926	individual features
0.5333919931	small perturbation
0.5333909716	regularized linear
0.5333068390	deep rectifier
0.5332958459	modern applications
0.5332757174	flow problems
0.5332695675	extreme value
0.5332446876	low false positive
0.5332301552	approximation accuracy
0.5332268364	hyper parameter selection
0.5331748847	key step
0.5331523709	neural network design
0.5331456223	last iterate
0.5331072605	multiplicative weight
0.5330793866	learning transferable
0.5330208976	evaluation function
0.5330057806	clinical tasks
0.5329979090	non decomposable
0.5329826962	travel time
0.5329492971	polynomial sample
0.5329329316	speed prediction
0.5329154671	non stationarity
0.5328750345	scalable variational
0.5328605507	provably faster
0.5328574230	purely unsupervised
0.5328455800	f_ *
0.5327941061	aware graph
0.5327579306	space spanned
0.5327577283	carlo approximation
0.5327211536	theoretical convergence guarantees
0.5326798441	replica method
0.5326663260	linear contextual
0.5326335264	underlying structures
0.5325738851	embedded space
0.5325651881	true distribution
0.5324896249	bayesian uncertainty
0.5324728203	explainable artificial
0.5324506046	generate high quality
0.5324419766	lower computational complexity
0.5324196607	mcmc method
0.5324009096	local interpretability
0.5322935478	high quality speech
0.5322839457	strong empirical
0.5322454307	substantial reduction
0.5322452977	domain specific knowledge
0.5322380150	key properties
0.5321728944	network diffusion
0.5321517447	real world situations
0.5321040386	complex physical
0.5320799851	modeling user
0.5320728076	systematic study
0.5320504421	deep sets
0.5319802398	structural characteristics
0.5319778128	margin classifiers
0.5319055360	provide strong
0.5318005877	sampling mechanism
0.5317914178	matrix based
0.5317741777	neural attention
0.5316702623	direct estimation
0.5316554501	detect anomalous
0.5315895750	past years
0.5315811325	input matrices
0.5315511341	natural image datasets
0.5315281740	parameter search
0.5314980866	normal and abnormal
0.5314709790	weighted sum
0.5314091906	matrix operations
0.5313965420	current literature
0.5313947872	estimation framework
0.5313618204	maximum likelihood training
0.5313240346	multi agent learning
0.5312329958	tractable convex
0.5312082139	optimal regret bounds
0.5312009317	clinical concepts
0.5311947795	traditional machine
0.5311811620	individual users
0.5310761481	existing defenses
0.5310704863	decision tree algorithm
0.5310432848	time series
0.5309815861	online evaluation
0.5309584106	trained separately
0.5308590664	results illustrate
0.5308198047	interpretable deep learning
0.5308150850	paper proves
0.5307773865	symbolic data
0.5307517323	optimal strategy
0.5307391796	algorithms attain
0.5307004895	conventional statistical
0.5306980973	deep learning networks
0.5306940354	verification tasks
0.5306347756	key insights
0.5306239425	encoding and decoding
0.5306209965	cifar 10 and cifar 100
0.5305504954	open challenge
0.5305442734	specific conditions
0.5305373081	complex task
0.5305199214	least mean square
0.5305188492	dataset demonstrate
0.5304770588	point of view
0.5304759285	feature analysis
0.5304609358	generalization capacity
0.5304596848	self supervised representation learning
0.5304415857	sgd and adam
0.5304410881	scientific data
0.5304084589	input data points
0.5303336996	type methods
0.5302755782	fundamental tools
0.5302579432	well separated
0.5302131252	higher predictive
0.5301429828	previous bounds
0.5301375523	additional computational cost
0.5300543457	short term traffic
0.5300084317	first order stationary point
0.5300043824	complexity theory
0.5299941019	manifold valued data
0.5299872751	method enjoys
0.5299839459	performance and sample efficiency
0.5297347360	variational inference scheme
0.5297267845	data partitioning
0.5296391677	quantitative evaluations
0.5295805216	actor critic method
0.5295644583	nonconvex and nonsmooth
0.5294439438	establish consistency
0.5294309022	machine learning and statistics
0.5294105785	multi output learning
0.5293766299	local search algorithm
0.5293637923	non negativity
0.5293547091	type estimators
0.5293541185	directed graphical models
0.5293420543	kernel parameters
0.5293289676	smooth strongly convex
0.5293081704	state action value function
0.5293035121	link prediction tasks
0.5291391321	acyclic model
0.5290612281	provide sufficient
0.5290581921	n gram
0.5290394000	gain insight
0.5289995106	written in python
0.5289941273	multi agent deep reinforcement
0.5289936833	incorporate prior knowledge
0.5289790396	bernoulli distributions
0.5288790199	two sample test
0.5288177952	machine generated
0.5288019131	graphical models
0.5287943275	matrix factorization techniques
0.5287836091	image classification task
0.5287350253	linear and logistic regression
0.5287333586	fold cross
0.5287297329	\ sqrt kt
0.5287099442	real time monitoring
0.5286977860	adaptive threshold
0.5286352398	based framework
0.5286121694	approximation properties
0.5286005814	class imbalanced data
0.5285756753	promising direction
0.5285636425	policy function
0.5284844294	local curvature
0.5284641353	predictive risk
0.5284473429	multi label data
0.5284435219	heuristic methods
0.5283874991	np hard problems
0.5282589790	root mean
0.5282044824	mnist and cifar 10
0.5281797316	accurate posterior
0.5281168300	statistical modelling
0.5281063628	scaling up
0.5281057885	deep energy
0.5280868135	major advantage
0.5280476669	convex constraint
0.5279988083	reinforcement learning framework
0.5279392114	parameter regime
0.5279199215	supervised learning problems
0.5278692485	synthetic benchmarks
0.5278350586	interpretable structure
0.5278139499	continuous latent
0.5277861915	timing dependent
0.5277185252	ranking algorithms
0.5277085687	low sample
0.5276900575	error measure
0.5276760425	multi parameter
0.5276555612	projected data
0.5276522804	model free approaches
0.5275936034	layer perceptron
0.5275764801	design variables
0.5275542424	part of speech tagging
0.5275001907	encoder decoder model
0.5274851163	decentralized online
0.5274671907	model uncertainties
0.5274367770	integrate multiple
0.5274132143	signal to interference
0.5273928051	empirical properties
0.5273443587	discounted markov
0.5273265298	random functions
0.5272450322	expensive to evaluate
0.5272285466	monte carlo based
0.5272171151	final prediction
0.5272149277	sequential information
0.5271745003	unsupervised representation
0.5271237794	k svd
0.5271083258	numerical approximations
0.5270383971	empirical results demonstrate
0.5270082562	information bottleneck principle
0.5269961351	unknown transition
0.5269929943	general principle
0.5269887418	matrix factorization model
0.5269365652	noise scale
0.5269324190	continuous features
0.5269266124	non invasive
0.5269143157	naturally captures
0.5269065985	bayesian probabilistic
0.5268762512	cnn features
0.5267846474	data completion
0.5267685999	maximum likelihood framework
0.5267421196	asymptotic accuracy
0.5266717109	gradient based training
0.5266543016	specific effects
0.5266449390	puts forth
0.5266227192	name disambiguation
0.5265853357	multi armed bandit algorithm
0.5265618396	provide sharp
0.5265534138	vae based
0.5265277253	network representation
0.5265277082	directly applying
0.5265235821	volumetric data
0.5265080025	symmetric matrix
0.5264903264	cancer diagnosis
0.5264885168	visual domain
0.5264122352	bayesian treatment
0.5263485663	sequential decision making problem
0.5263199462	local modes
0.5263119191	current practice
0.5262888640	efficiently generate
0.5262710610	near infrared
0.5262554979	human decisions
0.5262521862	embeddings learned
0.5262365044	perform experiments
0.5261585649	approximation capabilities
0.5261561766	negligible accuracy
0.5261325388	additional computational
0.5261264731	training schemes
0.5260670337	key result
0.5259798012	sparsity conditions
0.5259506369	least squares regression
0.5259489103	cifar10 and imagenet
0.5259358101	stochastic gradient descent algorithms
0.5259182968	conversion prediction
0.5259043777	efficiently trained
0.5258043704	random linear
0.5258006110	standard tools
0.5257980920	machine learning practitioners
0.5257590815	eqnarray *
0.5257218287	regret rate
0.5256901748	ranking method
0.5256674137	differentiable architecture
0.5256316321	geospatial data
0.5255963008	underlying graph structure
0.5254642175	builds upon
0.5253764892	additional computation
0.5253710599	skip gram model
0.5253511543	large scale data sets
0.5253445503	matrix tensor
0.5253380919	dimensional time series
0.5253175379	self organized
0.5252956794	sequential model based
0.5252847140	benchmark domains
0.5252822371	sampling procedures
0.5252604939	regression based
0.5252459894	specific application
0.5251356068	usage patterns
0.5251267118	detection mechanism
0.5251065721	key role
0.5249214736	agents trained
0.5249059872	dropout based
0.5248952867	weight values
0.5247560901	existing research
0.5247239538	structured latent
0.5247173339	transportation problem
0.5246505792	spectral kernel
0.5246177683	free probability
0.5246006876	map solution
0.5245707573	highly popular
0.5245393046	unlabeled target
0.5244739722	image regions
0.5244247933	student t
0.5244157035	latent parameters
0.5243375280	earth system
0.5242596369	comparative results
0.5242512961	e commerce platforms
0.5242350481	individual agents
0.5242257470	accuracy improvements
0.5241826306	square errors
0.5241738203	dynamic mode
0.5241522140	imperceptible to humans
0.5241403303	classification of high dimensional
0.5241402097	network activations
0.5241353719	automatic identification
0.5240978679	expectation maximization algorithms
0.5240690588	optimal sampling
0.5240314229	structured graph
0.5240301667	linear computational complexity
0.5239660068	convergence behavior
0.5239331014	adaptive stochastic
0.5238644500	underlying physics
0.5238500387	recursive neural
0.5238436998	automatically adapt
0.5237838820	model free algorithm
0.5237701344	problem independent
0.5237634705	verify empirically
0.5237629511	speeds up
0.5237539733	single hidden
0.5237388551	prove consistency
0.5236892322	learning capability
0.5236345973	multi view datasets
0.5236002862	dag structure
0.5235126839	mechanisms underlying
0.5234975627	approach works
0.5234669922	level explanations
0.5233342654	critical issues
0.5233304886	reveal interesting
0.5233270310	linear nonlinear
0.5233176228	private prediction
0.5233112885	paper considers
0.5232903434	collect data
0.5232460119	joint estimation
0.5232104552	variational bayes approach
0.5232053615	process instances
0.5231769600	modern statistical
0.5231689759	expensive process
0.5231514530	predictive process
0.5231448968	direct and indirect
0.5231390532	nearest neighbor methods
0.5230670014	frame prediction
0.5230335496	unsupervised learning of disentangled
0.5229437021	based optimization
0.5229387295	method shows
0.5229367490	topology based
0.5229282511	tree based methods
0.5228936151	integrating information
0.5228620418	mini batch stochastic
0.5228593572	low dimensional feature space
0.5228254721	stochastic gradient markov chain monte
0.5228228409	large scale data analysis
0.5227754246	rank factorization
0.5227616883	generating high quality
0.5227215889	end to end speech
0.5227203186	training cnns
0.5226295278	specific features
0.5225623731	nonstationary time series
0.5225543060	fast sampling
0.5225448968	age and gender
0.5225176835	neural information processing
0.5224901438	k nearest
0.5224724914	mnist and cifar10
0.5224352434	data mining algorithms
0.5224349495	erd \ h o s r
0.5223669507	nonconvex sparse
0.5223466536	difference learning
0.5223310599	fail to converge
0.5223084794	stochastic gradient descent method
0.5223058330	bayesian update
0.5223028641	large scale image
0.5222731623	data modification
0.5222566406	final result
0.5222321304	individual task
0.5222147237	routing problem
0.5222113606	multiple heterogeneous
0.5222042811	achieves superior performance
0.5222003366	global patterns
0.5221433832	approach relies
0.5220142639	observed values
0.5219701147	finite mixture models
0.5219669689	thompson sampling algorithm
0.5219600908	interesting structure
0.5219509447	approximate posterior distribution
0.5219059453	underlying clusters
0.5218825798	communication bottleneck
0.5218578648	compute power
0.5218466409	online implementation
0.5217682763	training generative
0.5217364932	clinical applications
0.5216985548	global solution
0.5216291995	prec @
0.5216200296	training data set
0.5215339423	share information
0.5215166954	asymptotic distribution
0.5214671716	causal learning
0.5214502339	improved clustering
0.5214245627	large scale dataset
0.5214089730	bandit literature
0.5213925735	evaluation results
0.5212720325	proposed architecture
0.5212719831	designing efficient
0.5212507182	gaussian components
0.5212302717	training efficiency
0.5212284961	formal concept
0.5212163308	optimization schemes
0.5211953637	local model
0.5211839161	bayesian optimization methods
0.5211787444	gradient descent methods
0.5211415413	ill posedness
0.5211079718	data space
0.5210634209	theoretically analyzing
0.5210233348	uci machine learning
0.5209701739	current policy
0.5208630347	inverse regression
0.5208389607	solutions obtained
0.5208367049	long standing open
0.5207770131	complex physical systems
0.5207633615	variational lower bounds
0.5207441302	complex patterns
0.5207144643	matrix size
0.5206759663	sensitivity and specificity
0.5205558976	consistent estimator
0.5205102814	completely at random
0.5204723738	analysis establishes
0.5204650550	whole brain
0.5204510998	bayesian formulation
0.5204451933	connected neural networks
0.5203852123	number of measurements required
0.5203829092	optimization path
0.5203251511	tensor decomposition methods
0.5203188334	query samples
0.5202920622	kernel stein
0.5202843342	random parameters
0.5202671204	frank wolfe method
0.5202273775	selection schemes
0.5202258362	additional knowledge
0.5201967005	summarization tasks
0.5201963642	theoretic approach
0.5201729102	provide insights
0.5201496252	recent techniques
0.5200974871	framework includes
0.5200660235	current algorithms
0.5200626120	back propagated
0.5200556912	average f1
0.5200548255	model runs
0.5200083262	sparse neural networks
0.5199680193	value iteration
0.5199269061	expert level
0.5198987214	bayesian semi supervised
0.5198146824	rate function
0.5198055248	canonical examples
0.5197918182	perceptual tasks
0.5197685339	augmented training
0.5197224705	absolute shrinkage and selection
0.5196978362	manifold learning algorithms
0.5196898168	cifar 10 and svhn
0.5196839743	candidate structures
0.5196784757	continuous control problems
0.5196077918	fingerprinting based
0.5195976166	means clustering
0.5195869265	normalized maximum
0.5194958260	active clustering
0.5194905392	existing estimators
0.5194270634	unique features
0.5193877445	joint modeling
0.5193446360	observed network
0.5191967936	effectively exploit
0.5191610815	agreed upon
0.5191499588	task specific parameters
0.5191101281	reinforcement learning techniques
0.5190537678	online control
0.5190381382	tensor completion problem
0.5188388027	high dimensional vectors
0.5187826275	complex domains
0.5187477584	state level
0.5186171186	individual characteristics
0.5185607556	end to end speech recognition
0.5185599586	heuristic approach
0.5185386245	dl model
0.5183668661	variational inference framework
0.5183521909	kernel clustering
0.5183049742	complex datasets
0.5182849421	feature extraction methods
0.5182593870	cosine transform
0.5182495839	low computational
0.5182335283	incorporating domain
0.5182290545	deep neural network training
0.5182237948	resulting algorithm
0.5181926599	empirical distributions
0.5181621314	variation minimization
0.5181369763	sparse graph
0.5180883584	straightforward to implement
0.5180442357	parametric function
0.5180025421	robotics tasks
0.5179153559	remains difficult
0.5178036331	applying machine learning techniques
0.5178030899	data sizes
0.5177937616	dimension reduction methods
0.5177562570	input size
0.5177262214	precision and recall
0.5176813633	consistency property
0.5176365396	mini batch stochastic gradient
0.5175523370	medical dataset
0.5175262640	slide images
0.5174759075	sparse attention
0.5174574191	guided learning
0.5174515716	low dimensional vectors
0.5174271712	data arrive
0.5174147014	additional features
0.5174095245	attention recently
0.5174086386	systematically study
0.5173300687	learned simultaneously
0.5173251584	levels of granularity
0.5172291667	clustering and semi supervised
0.5171940872	adversarial training methods
0.5171527006	efficiently estimated
0.5171235961	sup norm
0.5169884589	high computational costs
0.5169622582	uncertainty measure
0.5169273825	log factors
0.5168536112	value function approximation
0.5168243173	information theoretic approach
0.5167905567	shared weights
0.5167846450	ensemble classification
0.5167729002	simple greedy algorithm
0.5167579275	source and target domain
0.5167480902	important variables
0.5167406385	medical field
0.5167049596	scheme achieves
0.5166981619	one shot neural architecture search
0.5166837261	exponential kernels
0.5166810246	data analytic
0.5166560283	agent's ability
0.5166355186	black box settings
0.5165826365	scale datasets
0.5165548702	flow based generative
0.5165303339	easier to interpret
0.5165145457	shared structure
0.5165116598	selection mechanism
0.5165080803	accumulation point
0.5164909377	search methods
0.5164667187	bayesian modelling
0.5164433540	large scale networks
0.5164279576	frequently observed
0.5163616298	visual context
0.5161974082	training algorithms
0.5161911151	sampling probabilities
0.5161355732	extra data
0.5161238523	dataset collected
0.5160718280	unknown smoothness
0.5159859833	research proposes
0.5159243606	data dimensionality
0.5158759424	health information
0.5158418280	likelihood score
0.5158160082	linear dynamical system
0.5157858845	distinguishing features
0.5157828709	challenges arising
0.5157554294	local data
0.5157393372	computation times
0.5157167886	trade off
0.5157057684	convergence bounds
0.5156614598	interpreting deep
0.5156547849	low dimensional feature
0.5156372425	statistical approaches
0.5156079763	optimal error
0.5155612422	factorization methods
0.5155545929	explicitly modeling
0.5155437883	levels of abstraction
0.5155303709	room for improvement
0.5155198899	contemporary machine
0.5155183626	irregular time series
0.5154736778	recently demonstrated
0.5154686824	visual data
0.5153728763	extracting latent
0.5153685037	achieve remarkable
0.5153355466	sequential setting
0.5153339578	directly estimate
0.5153310367	step by step
0.5153309772	dimension reduction method
0.5152849339	low fidelity data
0.5152329239	un normalized
0.5152196675	image recognition tasks
0.5152018258	target objects
0.5151955416	meta learning methods
0.5151799023	results generalize
0.5151652482	analytically and numerically
0.5151405307	shows superior
0.5151221412	cnns and rnns
0.5151032347	quasi monte
0.5150354936	adaptive selection
0.5148767565	extreme multi label
0.5148429973	patients diagnosed
0.5148302318	invertible neural
0.5148118317	online stochastic
0.5148000704	d psgd
0.5147534012	high dimensional input
0.5147461339	individual data points
0.5147292997	subspace clustering algorithms
0.5147276255	calibrated predictions
0.5146848236	requires significant
0.5146776028	based image retrieval
0.5146745988	latent variable graphical model selection via
0.5146622035	unifying view
0.5146161155	similarity information
0.5145368948	fast iterative
0.5144733675	safety and security
0.5144605650	em approach
0.5144356208	main features
0.5143212186	facilitate research
0.5143160509	computer scientists
0.5143091245	definite kernels
0.5142842902	discrete optimal transport
0.5142807223	efficient hardware
0.5142599201	noisy conditions
0.5142503655	efficiently extract
0.5141723957	temporal domain
0.5141064823	dataset shows
0.5141025589	exploding gradient
0.5140517223	shows superior performance
0.5140327309	method converges
0.5140232712	measurement model
0.5139720286	maximum likelihood learning
0.5139715961	formal study
0.5139301896	researchers and practitioners
0.5139116379	comparison data
0.5138710360	representations learned
0.5138515632	study highlights
0.5138429509	borrowing ideas from
0.5138264346	feature extraction and classification
0.5138183611	joint learning
0.5137387296	tight lower
0.5136766223	sparse solution
0.5136485107	visual input
0.5136455076	non backtracking
0.5136199270	causal information
0.5135915540	sketching methods
0.5135547952	convex combinations
0.5135546393	gaussian model
0.5134789410	data perturbation
0.5134348883	adversarial detection
0.5134282806	quantify uncertainty
0.5133959508	software and hardware
0.5133581303	stochastic programming
0.5133578327	parametric inference
0.5133118738	density functional
0.5132543270	synthetic data set
0.5132524853	stochastic methods
0.5132319576	means and variances
0.5132189737	sentinel 2
0.5131954878	supervised topic models
0.5131924964	task inference
0.5131802965	momentum methods
0.5131590394	highly nonconvex
0.5131370185	vector data description
0.5131151899	high spatial
0.5130774877	anomaly detection method
0.5130737958	graph learning framework
0.5130583341	gender or race
0.5130500565	sample regime
0.5129937581	embedding function
0.5129748646	standard accuracy
0.5129707729	asymptotic behavior
0.5129404552	tasks requiring
0.5128797973	hold out
0.5128637873	feed forward network
0.5128618878	effectively identify
0.5128138905	naive bayesian
0.5128028430	memory complexity
0.5128020308	vector products
0.5127962774	pre and post
0.5127859698	minimum mean squared
0.5127852436	data mining and machine learning
0.5127837629	negative rate
0.5126835835	unsupervised outlier
0.5126513756	underlying assumptions
0.5126408864	pre trained model
0.5126393755	natural world
0.5126210913	supervised setting
0.5125716564	systematic experiments
0.5125701988	nonconvex problem
0.5125608073	uncertainty based
0.5125527520	depth and width
0.5124620659	data aggregation
0.5124530627	network robustness
0.5123893774	outperforming existing
0.5123713240	nonlinear approximation
0.5123285319	low signal to noise ratio
0.5123185913	distribution based
0.5122978818	machine learning and deep learning
0.5122948293	outperform previous
0.5122926799	dimensional nonlinear
0.5122679353	linear inverse problem
0.5122482262	nonlinear equations
0.5122363371	theoretical investigation
0.5122358513	arcade learning
0.5122316434	decoding algorithm
0.5122245759	image understanding
0.5121443526	learn disentangled representations
0.5121328118	previous algorithms
0.5121196284	robust deep
0.5121082481	\ text nnz
0.5121042374	similar and dissimilar
0.5120650368	times smaller
0.5120187135	exhibit high
0.5119377161	fourier domain
0.5119030396	compression algorithm
0.5118815639	class distribution
0.5118666015	hundreds of thousands
0.5118449632	wise pruning
0.5118330909	patients at risk
0.5118285740	ising models
0.5117126883	high mutual information
0.5116355275	conditional neural
0.5114873469	deep ensemble
0.5114734615	initial weights
0.5114550833	dimensional problems
0.5114437832	preserving embedding
0.5114365963	prove convergence
0.5114084158	almost sure convergence
0.5113894364	matching lower bound
0.5113721045	high dimensional features
0.5113473808	priori knowledge
0.5112897476	largely ignored
0.5112470181	transfer learning approaches
0.5112065040	inner products
0.5112021309	multiple constraints
0.5111957860	de facto
0.5111589744	results verify
0.5111325935	auto encoder based
0.5110866313	controlled trials
0.5110496633	improved sample efficiency
0.5110475352	solving partial
0.5110464233	elastic weight
0.5110242123	classification decision
0.5110218934	data regime
0.5110115062	distributed implementations
0.5110026165	implicit variational
0.5109812047	continual learning methods
0.5108540440	lower error
0.5108351314	clustering based
0.5108189210	efficient ways
0.5108050179	signal processing and machine learning
0.5107837317	interaction networks
0.5107636302	land use
0.5107477893	uncertainty prediction
0.5107288906	method requires
0.5106750042	requires minimal
0.5106416671	heavily relies
0.5106386217	sublinear rate
0.5106350556	global convergence guarantees
0.5105810966	quantitative experiments
0.5105691356	long short term memory recurrent
0.5105597033	nearly optimal
0.5105240989	algorithms converge
0.5104589962	direct method
0.5104448486	baseline accuracy
0.5104097216	limited size
0.5104068950	simulated and real data sets
0.5103949657	probabilistic prediction
0.5103906281	advanced techniques
0.5103874608	network capacity
0.5103704406	arbitrary distributions
0.5103403202	benchmarking datasets
0.5102442471	underlying assumption
0.5102209617	gaussian filtering
0.5101653485	lstm and gru
0.5100856669	generalize to unseen
0.5100342895	multivariate setting
0.5100229357	paper addresses
0.5100212814	automated feature
0.5099772533	gd and sgd
0.5098932208	output uncertainty
0.5098619901	detection framework
0.5098167490	finite support
0.5098047048	large scale machine learning problems
0.5097528268	spatial relations
0.5097098011	large covariance
0.5096675644	penalized maximum
0.5096297053	unsupervised object
0.5096133463	hitting time
0.5095927916	resolution images
0.5095923698	directly apply
0.5095821921	weight function
0.5095751938	set selection
0.5095416045	vision applications
0.5095306807	interpretable classification
0.5095119566	extract features
0.5094988852	multi agent setting
0.5094447710	graph transformer
0.5094317889	learning objectives
0.5094249172	specific domain
0.5093710025	conditional probability distribution
0.5093264941	evaluation demonstrates
0.5093004798	bad data
0.5092875303	white box setting
0.5092865147	mixed membership stochastic
0.5092736769	times faster than
0.5092498703	high dimensional data analysis
0.5092090007	field programmable
0.5091859432	critical challenges
0.5091393453	small learning rate
0.5091009729	decision space
0.5090748574	important factors
0.5090365707	single classifier
0.5090319187	width and depth
0.5090317518	high dimensional bayesian optimization
0.5090214368	highest performance
0.5089541401	image processing tasks
0.5089521723	explicitly capture
0.5088947576	robust risk
0.5088707731	polynomial function
0.5088106638	natural assumptions
0.5087789137	convexity and smoothness
0.5087775878	synthetic and real datasets
0.5087766797	compares favorably against
0.5087227610	standard bayesian
0.5087167926	bayesian poisson
0.5086464270	deep neural network based
0.5086079111	self contained
0.5086023400	programming problem
0.5085924258	wasserstein adversarial
0.5085884745	approach exploits
0.5085688280	smoothing effect
0.5085058829	deep kernel
0.5084914977	admm methods
0.5084682773	essential information
0.5084451851	online adaptive
0.5083094822	approach avoids
0.5082818166	gradients computed
0.5082033033	choice data
0.5081685624	real world domains
0.5081483268	dimensional input
0.5081475698	network configurations
0.5081309968	practical tool
0.5081121571	comparable or superior
0.5081021355	against adversarial attacks
0.5080983199	attractive features
0.5080623172	pass filtering
0.5080168807	model free approach
0.5078646214	algorithm scales
0.5078486765	bandit approach
0.5078466728	static networks
0.5077929783	modeling complex
0.5077825952	molecules and materials
0.5077477617	multiple data sets
0.5076733926	95 ci
0.5076640108	automatic speaker
0.5075751158	computationally and statistically efficient
0.5075693644	quadratic cost
0.5074515762	realistic looking
0.5074035626	centered around
0.5073898663	internal structure
0.5073514305	pre trained deep
0.5073388015	deep gaussian process
0.5073114187	multi output gaussian
0.5072635332	federated averaging algorithm
0.5072366319	random networks
0.5072341129	mathematical modeling
0.5072199741	over parametrized regime
0.5072133644	teacher and student
0.5071914765	clustering approach
0.5071794807	filtering methods
0.5071624685	flexible generative
0.5071562029	important task
0.5071423207	nonconvex setting
0.5071331669	autoregressive density
0.5071282014	number of layers increases
0.5070514030	gps data
0.5070308882	explicitly model
0.5069947750	approximation techniques
0.5068553747	face to face
0.5068520422	two player game
0.5068350248	stochastic natural gradient
0.5068109650	wise linear
0.5067924147	information systems
0.5067606131	additional unlabeled data
0.5067183907	task selection
0.5067024870	convex penalties
0.5066635603	data driven fashion
0.5065925715	nonlinear manifolds
0.5065872471	de identification
0.5065866967	vision and natural language processing
0.5065865763	near perfect
0.5064439495	parameter set
0.5064436758	theoretic view
0.5063566038	log factor
0.5063284032	recent applications
0.5063155063	sharing data
0.5063051713	science and machine learning
0.5062712827	learning and meta learning
0.5062665263	automated detection
0.5062401807	non vacuous
0.5061511640	numerical solutions
0.5061478030	low dimensional latent space
0.5061285426	unlike existing methods
0.5061272534	existing alternatives
0.5060654201	sequential neural
0.5060310795	sheds light on
0.5060246913	long term temporal
0.5060006462	causal graphical
0.5059789771	evaluation methods
0.5059154511	transferring information
0.5059085519	high dimensional limit
0.5058995221	received significant
0.5058761248	classification risk
0.5058747814	rl problems
0.5058411071	multilayer neural
0.5058097061	held out
0.5058027373	data mining applications
0.5057883450	interesting patterns
0.5057165264	considerable research
0.5056591485	fundamental performance
0.5056414453	optimal convergence rates
0.5056410269	training recurrent neural networks
0.5055751301	training criterion
0.5055467647	experimentally compare
0.5054742104	pre image
0.5054699181	convex objective
0.5053937811	rapid development
0.5053511946	product of experts
0.5053470961	initial training
0.5052979355	matching problems
0.5052862163	numerical experiments illustrate
0.5052601733	similar improvements
0.5052279879	adaptive kernel
0.5052243658	noise patterns
0.5051343571	twice differentiable
0.5051288890	retrieval tasks
0.5050704963	processing applications
0.5050700120	desired performance
0.5050682819	results reported
0.5050680022	rich data
0.5050503615	adaptive policy
0.5050452043	stochastic nonconvex
0.5050292953	deep learning tools
0.5050236163	training data points
0.5049496761	approximation bounds
0.5048378113	energy based models
0.5047949544	existing efforts
0.5046608092	large problems
0.5046414502	a brief introduction
0.5046108426	data adaptive
0.5045940968	learning based control
0.5045618521	neural semantic
0.5045464188	forecast model
0.5045361237	polynomial time
0.5044997754	differentiable loss
0.5044600624	regularized leader
0.5044532698	attack algorithms
0.5044436509	highly robust
0.5043885350	signal representation
0.5043582181	sample hypothesis testing
0.5042882592	large populations
0.5041917861	adversarial attack methods
0.5041333348	estimating heterogeneous treatment
0.5040640062	conditional value at risk
0.5040259690	multivariate time series data
0.5040094222	random gradient
0.5039849068	multi view information
0.5039752429	expected future
0.5039346581	region policy optimization
0.5039257451	svd based
0.5039166873	explicit dependence
0.5038584495	behavior prediction
0.5038345654	neural classifiers
0.5038120453	real world social
0.5037366739	model architecture
0.5037109459	x rays
0.5036729926	multi task framework
0.5036641099	top n recommendation
0.5036589414	extreme gradient
0.5036376598	regression loss
0.5036226961	sensitive applications
0.5036226050	modeling capacity
0.5036050263	items to users
0.5035184824	online settings
0.5035003216	augmentation technique
0.5034423492	lower dimensional latent
0.5034306224	present experimental results
0.5034303951	exploration and exploitation
0.5033519897	chain monte carlo sampling
0.5033386020	effective learning
0.5033262666	insufficient data
0.5033174883	online manner
0.5032981432	method obtains
0.5032506483	high predictive performance
0.5031588627	model assumes
0.5030990829	self supervised learning
0.5030913471	graph convolutional neural
0.5030807603	transform learning
0.5030625357	valued regression
0.5030403291	fundamental problems
0.5030222575	proposed estimators
0.5030019938	significant differences
0.5029519900	concept learning
0.5029440515	promising empirical
0.5029190301	provide concrete
0.5028848106	sign recognition
0.5028572348	head attention
0.5026997819	regular graphs
0.5026893370	require significant
0.5026818267	attention based recurrent
0.5026807264	forecasting problems
0.5026317484	one shot nas
0.5025818609	stochastic quasi
0.5025759690	accurate results
0.5025692191	provide experimental evidence
0.5025433095	relevant and irrelevant
0.5025360213	non negative
0.5025359970	dose ct
0.5025263157	smaller variance
0.5024900287	supervised learning methods
0.5023890485	batch setting
0.5023703614	gradient based algorithms
0.5022718043	spatial relationships
0.5022380432	self expressive
0.5022251378	detecting adversarial
0.5022154281	membership information
0.5021969110	factorization problems
0.5021821738	quantitative and qualitative
0.5020930687	additive and multiplicative
0.5020524320	nonlinear model
0.5020021609	process priors
0.5019913135	generate high fidelity
0.5019246870	forward dynamics
0.5018992172	model named
0.5017981040	large errors
0.5017777799	online learning algorithm
0.5017603619	fundamental challenge
0.5017327070	scenarios involving
0.5017133245	avoid over fitting
0.5016931583	jointly train
0.5016466055	multi objective reinforcement learning
0.5016421658	match or outperform
0.5015477972	hard and soft
0.5015430100	worst case loss
0.5015363041	variation distance
0.5015285354	achieve significant
0.5015113774	estimator converges
0.5015112646	reversible markov
0.5014614595	increasing size
0.5014162635	underlying population
0.5014005464	deterministic optimization
0.5013911065	k means clustering
0.5013767230	unified theory
0.5013353540	linear constraint
0.5013278150	pre trained networks
0.5013236533	monte carlo algorithms
0.5013194476	mapped onto
0.5013168052	related applications
0.5013139210	finitely many
0.5013137899	ranking model
0.5013121649	auxiliary learning
0.5013017196	provide provable
0.5012525394	effectively leverage
0.5012268473	defend against
0.5012066428	attack accuracy
0.5011880461	phone call
0.5011876093	real and imaginary
0.5010324252	fair comparison
0.5010308359	unsupervised task
0.5009671788	sub sampled
0.5008697792	uniformly random
0.5008025125	well posedness
0.5007831083	real time
0.5007386888	cifar 10 and imagenet
0.5006025939	recently extended
0.5005754887	thresholding bandit
0.5005212295	smooth non convex
0.5004743772	quantum monte
0.5004727527	neural spike
0.5003620751	transport theory
0.5003164480	original features
0.5002230515	learning scenario
0.5002054039	self normalizing
0.5001591574	optimization approach
0.5001250255	deep multi task learning
0.5000585287	gated recurrent neural
0.4999579655	regularized convex
0.4999481434	deep artificial neural networks
0.4999462449	energy networks
0.4999423832	reduced order models
0.4999115569	dynamic sparse
0.4998610857	imbalanced learning
0.4998161325	possibly noisy
0.4998115024	strengths and limitations
0.4997558977	immune system
0.4996818884	continuous states
0.4996496902	multi task reinforcement learning
0.4996443169	individual treatment
0.4996153628	t distributed stochastic neighbor embedding
0.4995022810	options framework
0.4994155545	entire dataset
0.4993920690	linear kernel
0.4993850656	graph classification tasks
0.4993440814	recommendation algorithm
0.4993171335	difficult to interpret
0.4993061022	data collections
0.4993007134	c eval
0.4992617773	layer cnn
0.4992387160	data reduction
0.4992383156	optimal transport based
0.4992194663	high quality solutions
0.4992010570	diverse applications
0.4991503913	conditional and unconditional
0.4991482938	root causes
0.4991141124	integrated moving
0.4991076742	modelling approach
0.4990932247	side information
0.4989886485	exploration policy
0.4989808029	significant influence
0.4989659624	huge amounts
0.4989622856	tasks involve
0.4989576955	difference of convex
0.4989038081	approach obtains
0.4988975664	design problems
0.4988970107	results obtained
0.4988916719	algorithmic approaches
0.4988719027	popular benchmark datasets
0.4988370017	simultaneous perturbation
0.4988137902	local interpretable model
0.4988044823	reasoning about
0.4987753578	mean field games
0.4987405500	self interested
0.4987358869	primal and dual
0.4986801389	efficiently optimize
0.4986169021	fundamental role
0.4985976337	natural accuracy
0.4985938696	do calculus
0.4985714814	simulation examples
0.4985109655	online sequential
0.4984483305	standard normal
0.4984118980	constrained problems
0.4983998520	adversarial objective
0.4983513152	batch training
0.4983138941	well founded
0.4982567523	matrix recovery problems
0.4982513976	model based policy
0.4982417146	demand function
0.4982379252	transition phenomenon
0.4981816608	existing graph
0.4981503913	directed and undirected
0.4980306875	learning with noisy labels
0.4979866191	dirichlet process mixture models
0.4979540336	poisson gaussian
0.4978712360	probabilistic representation
0.4978041390	adding noise
0.4977935273	meta learning algorithm
0.4977730686	automatically detecting
0.4977389784	distribution adaptation
0.4977265482	based search
0.4977045208	weighted edges
0.4976874764	dimensional parameter spaces
0.4976818810	accurate classifiers
0.4976683109	diverse tasks
0.4976506848	edge attributes
0.4976242147	sensor noise
0.4976235737	achieves significant
0.4976060317	performance analysis
0.4975934858	diverse types
0.4975912911	synthetic and real data sets
0.4975725192	natural question
0.4974352192	carried out
0.4973818601	neural network layer
0.4973051028	well documented
0.4972410896	structural constraint
0.4972367197	component pursuit
0.4972237449	qualitative evaluations
0.4971993376	easily incorporate
0.4971604882	generalized zero shot
0.4971516459	generally unknown
0.4971252068	classification boundary
0.4970797889	vision and language
0.4970690125	input graph
0.4970559480	boosting methods
0.4970354845	taking inspiration from
0.4970238506	frequentist and bayesian
0.4970037030	training deep
0.4969940521	independent features
0.4969534444	non convex
0.4969509311	asynchronous advantage
0.4969503913	internal and external
0.4969381758	toy data
0.4969144736	descent steps
0.4969126229	seeks to maximize
0.4969015087	sgd method
0.4968020930	under mild regularity conditions
0.4967701019	autoregressive neural
0.4967498616	statistical perspective
0.4967384744	initialization method
0.4967063443	data volumes
0.4966943916	model based control
0.4966174321	prediction framework
0.4966095507	trained neural network
0.4966036731	\ sqrt nt
0.4965843091	common settings
0.4965303423	minimax lower
0.4964876831	reconstruction results
0.4964306711	optimal complexity
0.4963537370	ever increasing
0.4962925016	directly learn
0.4962258356	\ mathsf mix
0.4962037409	label predictions
0.4961577348	problems including
0.4961048323	phase information
0.4960836981	full fledged
0.4960790233	resulting objective
0.4960384364	real world datasets demonstrate
0.4960093612	distributed machine
0.4959707469	ica model
0.4959364975	self taught
0.4959126529	fast and stable
0.4958550735	network architecture search
0.4958155418	evidence lower
0.4957864896	multi fidelity bayesian
0.4957514122	softmax distribution
0.4956955060	constrained environments
0.4956059583	nonconvex settings
0.4955580596	recovery error
0.4955030963	enables fast
0.4954372323	multiclass learning
0.4954341080	proposed methods outperform
0.4954201297	f measure
0.4953631008	margin classifier
0.4953506729	provide extensive
0.4953435958	regularized m estimators
0.4953087970	based diagnosis
0.4952954704	framework leads
0.4952318035	end to end training
0.4952316011	continuous dr
0.4952220855	strong empirical evidence
0.4952029847	bounded perturbations
0.4952023074	message length
0.4951871095	latent force models
0.4951843926	important insights
0.4951827524	numerical schemes
0.4951408378	positive and unlabeled
0.4950758512	multi armed bandit framework
0.4950646785	popular image
0.4950351397	demonstrates superior
0.4949797213	training and test sets
0.4949102687	sparse convex
0.4948614863	image samples
0.4948603056	quantum machine
0.4948550319	ai based
0.4948471592	model assumptions
0.4948437136	sub gaussian
0.4948417271	unsupervised text
0.4948414477	tangent kernels
0.4948260092	randomized controlled
0.4947882555	stream mining
0.4947666379	input matrix
0.4947525335	dynamic bayesian
0.4947339307	layer wise relevance
0.4946755812	classification algorithm
0.4946447784	re weighting
0.4945784585	distribution systems
0.4945518313	high fidelity model
0.4945491773	pre specified
0.4945094699	attention in recent years
0.4944793199	standard backpropagation
0.4944644597	static images
0.4944400821	model free methods
0.4944135723	achieves comparable performance
0.4944044860	memory structure
0.4943706665	perform extensive experiments
0.4943344456	smooth convex optimization
0.4943338233	consistently estimates
0.4943114333	model free learning
0.4943046924	recognition dataset
0.4942766436	architecture optimization
0.4942715078	model based approach
0.4942162843	drawing inspiration from
0.4941947989	implicit generative models
0.4941364693	fair learning
0.4940703520	simulated experiments
0.4940600579	simultaneously optimize
0.4940573143	least absolute shrinkage and selection operator
0.4939687858	unbiased estimates
0.4939064191	flow model
0.4938797889	privacy and utility
0.4938710147	return based
0.4938666012	\ mathrm polylog
0.4938606650	offline setting
0.4938598858	prediction sets
0.4938020111	inputs and outputs
0.4937375932	decoding process
0.4937226443	online training
0.4936938108	borrowing ideas
0.4936828491	high dimensional setting
0.4936489924	detection tasks
0.4936268569	reason about
0.4936105097	abstract features
0.4934474012	proposed method outperforms
0.4934239671	object recognition tasks
0.4933820152	similarities and differences
0.4933815601	don't know
0.4933668010	combinatorial search
0.4933532345	question remains
0.4933361359	3d point clouds
0.4933307806	exhibit strong
0.4933190945	open source library
0.4932646569	outperforms vanilla
0.4932635046	machine learning and artificial
0.4932589559	imputation techniques
0.4931856532	achieving comparable
0.4931467953	an empirical investigation
0.4930616393	almost sure
0.4930609420	superior accuracy
0.4930599672	domain adaptation problem
0.4930126682	two layer neural networks
0.4930103942	code for reproducing
0.4929588360	notions of fairness
0.4929192385	descent type
0.4928569447	attack vectors
0.4928165972	algorithms achieve
0.4927529225	minimization method
0.4927014327	produce realistic
0.4926512020	existing systems
0.4926338511	metric learning approaches
0.4926313863	training difficulty
0.4926137691	learning to rank
0.4925786877	fundamental statistical
0.4925392319	spectrum disorder
0.4925342856	gradient theorem
0.4925096260	important questions
0.4924936797	similar images
0.4924725821	data management
0.4924645738	global structures
0.4924587293	overwhelming probability
0.4923972069	number of mixture components
0.4923886336	transductive and inductive
0.4923859688	dynamic boltzmann
0.4923820533	meaningful patterns
0.4923302142	binary and multiclass
0.4923090573	connectome project
0.4923064121	proposed approaches
0.4922810371	unsupervised fashion
0.4922653496	initial estimate
0.4922448850	popular machine learning
0.4922227047	interpretable results
0.4922065440	isomorphism test
0.4922029847	unlike conventional
0.4921945761	higher degree
0.4921859062	common patterns
0.4921600365	adaptive step
0.4921555713	client side
0.4921365998	existing solvers
0.4921271210	theoretically and empirically
0.4920772394	geometric information
0.4920762660	built upon
0.4920005143	imputation of missing
0.4919991982	simulation results demonstrate
0.4919815992	neural processing
0.4919362508	train machine
0.4919253901	high dimensional environments
0.4919058011	signal structure
0.4918961768	outperforms baselines
0.4918238120	multi view graph
0.4917671987	recognition network
0.4917485353	method extends
0.4917214654	orthogonal matching
0.4916419242	dimensional pdes
0.4916379678	human labeling
0.4916344463	approach compares favorably
0.4916306778	deep ensemble learning
0.4916190778	data labeling
0.4916140985	common features
0.4916100275	significantly superior
0.4915952070	non saturating
0.4915717351	results provide
0.4915207879	face datasets
0.4914891761	vision benchmarks
0.4914532943	gradient algorithm
0.4913670579	vertices and edges
0.4913255904	online social media
0.4913141706	real time video
0.4912790126	analyzing large
0.4912674949	statistical assumptions
0.4912585368	data matrices
0.4912240122	results complement
0.4911131938	complex dependencies
0.4910018356	significantly larger
0.4909897557	fundamental problem
0.4909731451	modern large scale
0.4909303376	popular benchmark
0.4909213849	lstm layers
0.4908586877	transfer reinforcement learning
0.4907893072	query learning
0.4907846691	graph distance
0.4907243126	unsupervised setting
0.4907110833	key advantage
0.4906964202	field of view
0.4906712980	pruning algorithms
0.4906210763	online learning setting
0.4905801069	discovery rate control
0.4905660692	self attention mechanism
0.4905654499	optimal mini batch
0.4905614485	recall @
0.4905476169	central role
0.4905367510	application fields
0.4904871786	graphics processing
0.4904757186	weights and biases
0.4904410734	multi view clustering methods
0.4904349058	large sample sizes
0.4903870624	deep embedding
0.4903610601	recurrent neural network model
0.4903495992	bayesian online
0.4903419637	positive result
0.4903223453	data storage
0.4902981740	timely detection
0.4902880958	detection algorithm
0.4901722194	modern machine learning methods
0.4901565626	pose significant
0.4901553513	learning sparse representations
0.4901234655	online tensor
0.4900767947	item representations
0.4899915865	clustering task
0.4898871849	higher prediction accuracy
0.4898814517	theoretical computer science
0.4898464693	generative approaches
0.4898449171	variance of gradient estimates
0.4898151406	off line
0.4897925094	online rl
0.4897480461	supervised labels
0.4897446058	l_ \ infty
0.4897268096	parallel algorithms
0.4897127633	improve prediction accuracy
0.4896959592	standard maximum likelihood
0.4896904550	human evaluations
0.4896124875	treatment selection
0.4895655749	dimensional linear
0.4895448202	non differentiable
0.4895399705	multi label classification problem
0.4895386469	causal machine learning
0.4895187983	training method
0.4895039290	self distillation
0.4894900238	efficient parallel
0.4894573503	great deal
0.4894164425	entities and relations
0.4894106040	visible and hidden
0.4893620689	applied successfully
0.4893512621	compare favorably
0.4893281321	brings significant
0.4892920094	cost matrix
0.4892325182	importance score
0.4892132321	highly heterogeneous
0.4891123878	adaptively learn
0.4890941329	norm constrained
0.4890686170	anomaly detection performance
0.4890221415	achieves optimal
0.4889735641	solving high dimensional
0.4889435492	gradient optimization
0.4889025833	data gathered
0.4888131767	method applies
0.4887952628	s & p 500
0.4887839692	black box machine
0.4887601148	related features
0.4887513784	iterative hard
0.4887017501	absolute shrinkage and selection operator
0.4886696434	hand in hand
0.4886519372	system identification
0.4886489623	least absolute
0.4885427851	plane based
0.4885330907	minimum error
0.4885237925	effectively utilize
0.4885069711	signal control
0.4885069123	gaussian case
0.4884301478	generation mechanism
0.4883732897	takes as input
0.4883466209	handle arbitrary
0.4883087374	svm training
0.4882980549	modeling tasks
0.4882889656	semi supervised learning methods
0.4882223255	online regression
0.4882004240	hard to interpret
0.4881437447	deep sequential
0.4881069972	typically involves
0.4881038651	constant approximation
0.4880959179	automatically learning
0.4880935706	experiments using real world
0.4880775695	statistical learning problems
0.4880678102	scheme outperforms
0.4880522034	encoder and decoder
0.4880311280	modeling tool
0.4879232807	supervised learning approach
0.4878982066	provide empirical
0.4878673297	error free
0.4878428008	quality of life
0.4877956294	sound and complete
0.4877601717	energy functional
0.4877480086	large size
0.4877040536	spread of covid 19
0.4876970338	communication efficient federated
0.4876542414	parametric bayesian
0.4876393289	extensive empirical results
0.4876216794	connected networks
0.4876196878	integrate and fire
0.4876186275	engineering systems
0.4875504051	algorithm builds
0.4875472315	remarkable results
0.4875343852	filtering and smoothing
0.4874510785	sequence training
0.4874213101	increasingly challenging
0.4874162446	active learning setting
0.4874063297	directly observed
0.4873885687	edge of chaos
0.4873871432	real life data sets
0.4873664931	infinitely many
0.4873502588	task related
0.4873431546	rely heavily
0.4873431546	heavily rely
0.4873389998	trustworthy machine
0.4872932078	proper learning
0.4872735998	encoder decoder framework
0.4872553481	ill conditioning
0.4871824886	multi view subspace
0.4871501666	probabilistic approach
0.4871294286	optimization formulation
0.4871289923	previous observations
0.4870714595	significantly outperforms existing
0.4870099479	resnet 50 on imagenet
0.4869766134	bayesian inference algorithm
0.4869308088	integrate information
0.4868652683	provably efficient algorithm
0.4868427295	cifar and imagenet
0.4868015319	robust bayesian
0.4868010698	main advantage
0.4867932458	similar fashion
0.4867847786	applications involve
0.4867781581	multiple networks
0.4867572140	second order stationary
0.4867019107	approach produces
0.4866289627	social and economic
0.4865892301	cifar 100 and imagenet
0.4865697136	mobile and embedded
0.4865582036	related studies
0.4865195532	non autoregressive
0.4865122702	experiments highlight
0.4864885106	classification and regression problems
0.4864862042	backpropagation through time
0.4864308247	generator and discriminator
0.4863875648	approximation method
0.4863476369	analytic expressions
0.4863449661	method consists
0.4863304047	iterative nature
0.4863089631	synthetic and real data
0.4862538006	identify relevant
0.4862190007	extensive numerical results
0.4862186220	rl policy
0.4861829663	autoregressive integrated
0.4861766761	functional relationship
0.4861425347	poincar \
0.4861110316	convolutional recurrent
0.4859762988	offer significant
0.4859648838	generative adversarial learning
0.4859598177	nonlinear kernel
0.4858497781	e nyi
0.4858353916	raw features
0.4858000352	million samples
0.4857765205	promising avenue
0.4857696477	datasets verify
0.4857689244	relies heavily on
0.4857611666	homogeneous and heterogeneous
0.4857607209	semi supervised learning algorithms
0.4857222776	sudden changes
0.4857079255	dimensional feature vectors
0.4856872679	1 bit matrix completion
0.4856206945	multi class classification problem
0.4855979712	recursive gradient
0.4855748561	recent past
0.4855666358	perhaps surprisingly
0.4854102720	temporal point
0.4853849402	exchange information
0.4853782657	agnostic meta learning
0.4852534056	problem faced
0.4852514565	generally require
0.4852497560	brain functional
0.4852195788	random forest model
0.4851768013	corrected stochastic block model
0.4851630129	active features
0.4851365726	structured covariance
0.4850514417	distribution networks
0.4850196002	large graph
0.4849885106	experiments on synthetic data
0.4849651165	identify clusters
0.4849580271	statistics literature
0.4849563362	distance similarity
0.4849452438	learning phase
0.4848589788	response prediction
0.4848142774	unlike classical
0.4847924453	first order stationary points
0.4847363508	second order stationary point
0.4846448021	generate images
0.4846065448	variational gaussian
0.4845301127	supervised learning setting
0.4845286125	structured and unstructured
0.4844645527	fashion mnist datasets
0.4844506893	independent and identically
0.4844349846	designing effective
0.4844272739	forward and inverse
0.4844167890	boosted decision
0.4843544044	stochastic optimization algorithm
0.4843290472	potential impact
0.4842996138	local cost functions
0.4842364221	input sample
0.4842259176	patient information
0.4841991806	science and engineering
0.4841782642	perform equally
0.4841750007	common assumption
0.4841079792	tight lower bound
0.4841074540	approximation problem
0.4841017997	dimensional settings
0.4840431595	model based techniques
0.4840141580	scientific and engineering
0.4838477816	smaller size
0.4838471288	multimodal deep
0.4838412460	data matrix
0.4838370457	theoretically and experimentally
0.4838016501	empirical mode
0.4837587525	wide residual
0.4837303491	gain insights
0.4835934733	total number of steps
0.4835286125	presented and discussed
0.4834872814	based clustering algorithm
0.4833614500	image space
0.4833422091	evaluation procedures
0.4833271003	training steps
0.4833055876	underlying probability distribution
0.4833045291	highly parallel
0.4832545785	policy based
0.4832516307	machine learning and deep
0.4832434755	sufficient information
0.4832003018	model predicts
0.4831829526	learning settings
0.4831824260	essentially optimal
0.4831636668	na \
0.4831345242	accurately learn
0.4831211024	accurate solution
0.4830916049	probability ratio
0.4830581531	empirically observe
0.4830352506	correct predictions
0.4830141580	challenges and opportunities
0.4829719283	architecture named
0.4829574120	opportunities and challenges
0.4828557233	high dimensional covariance
0.4828395127	parsimonious model
0.4828058239	low rank inducing
0.4827935698	observed and unobserved
0.4827425713	hierarchical gaussian
0.4827394882	combination methods
0.4826449481	clinical dataset
0.4825873167	bayesian nonparametric approach
0.4825497781	o lder
0.4824740624	bias terms
0.4824201162	single task learning
0.4824192827	strongly convex and non convex
0.4824099874	structured distributions
0.4823696813	multi view multi
0.4823630492	noiseless and noisy
0.4823553013	analysis technique
0.4823333702	heavy computational
0.4822896905	experimental result
0.4822588945	model fine tuning
0.4822399652	role played by
0.4821522364	private algorithms
0.4821359591	convolutional features
0.4820841927	man made
0.4820723034	quickly identify
0.4820561348	real systems
0.4820436160	active research
0.4820227823	mnist and cifar
0.4820159067	predict drug
0.4820150814	storage cost
0.4820125086	approach employs
0.4820074466	high classification accuracy
0.4819792129	static data
0.4819673189	successfully predict
0.4819351715	an open source python library
0.4819214254	generative models
0.4819165458	12 lead
0.4818920933	problem settings
0.4818788153	constraint functions
0.4818593753	bayesian active
0.4818345939	effective features
0.4818270267	long history
0.4818110974	simple iterative
0.4818087703	bo method
0.4817917032	underlying distributions
0.4817611666	actor and critic
0.4817420164	abrupt changes
0.4817123427	suffer from high variance
0.4817002208	paper shows
0.4816480093	multi view features
0.4816230511	manifold clustering
0.4814773443	analysis demonstrates
0.4814711722	co clustering
0.4814603031	strong theoretical
0.4814494626	primary visual
0.4814472846	bound propagation
0.4814093662	non idealities
0.4813987357	based outlier
0.4813218913	gradient based adversarial attacks
0.4813038854	meta modeling
0.4812696082	large scale inference
0.4812059594	real networks
0.4811712902	structured inference
0.4811683810	depth information
0.4811120401	autoencoder approach
0.4811016741	regularization approaches
0.4810967426	transformation network
0.4810779003	online meta
0.4810776859	recently proposed methods
0.4809754706	under mild assumptions
0.4809294680	sparse datasets
0.4808930528	24 hours
0.4808484224	algorithm produces
0.4807890418	unsupervised machine
0.4807102365	hardware and software
0.4806797780	human connectome
0.4806752205	empirically evaluated
0.4806486682	recognition model
0.4806150086	latent random variables
0.4805867921	paper explores
0.4805568077	predicting human
0.4805459832	exhibit similar
0.4805333468	data volume
0.4805293821	iterative scheme
0.4804280032	computing optimal
0.4803290314	log linear model
0.4802983506	an extensive experimental evaluation
0.4802631498	observed graphs
0.4802294172	fine grained control
0.4801744637	automated systems
0.4801630813	monte carlo inference
0.4801546654	time stamped
0.4801425797	meta algorithms
0.4801285944	heavy tailed data
0.4801226961	large annotated
0.4801190132	structural model
0.4800926401	existing schemes
0.4800816111	popular techniques
0.4800576113	learning applications
0.4800281921	traditional feature
0.4799850498	real environment
0.4799463476	exploitation and exploration
0.4798620309	functional regression
0.4798224966	produce samples
0.4797771230	multi task learning framework
0.4797661522	variational inference algorithm
0.4797611666	drift and diffusion
0.4797412653	model behavior
0.4796943323	structural knowledge
0.4796903525	matrix product
0.4796862266	plug in estimator
0.4796668090	results include
0.4796606028	continuous and categorical
0.4796423808	sub exponential
0.4796137140	observation data
0.4795828153	extra parameters
0.4795438327	two player zero sum games
0.4794779425	convex constrained
0.4794753598	training sample size
0.4794726975	improved training
0.4793747177	top ranked
0.4793559575	realistic data
0.4793392581	general smooth
0.4793092977	word problems
0.4792782547	analytical approach
0.4792780257	produce reliable
0.4792680231	model exhibits
0.4791902758	unstable training
0.4791029259	recent theoretical results
0.4790890092	crucial aspect
0.4790602897	opioid use
0.4790597220	biological datasets
0.4790419152	dominant approach
0.4790072272	sgd algorithms
0.4789706411	developing efficient
0.4789655531	ensemble learning method
0.4789493860	data analyses
0.4789065563	finite sample analysis
0.4788208488	exploration tasks
0.4787626225	neural language models
0.4787253154	approach considers
0.4786962355	largely unknown
0.4786928659	data synthesis
0.4786790728	gibbs sampling algorithm
0.4786610528	multi arm
0.4786568299	search method
0.4786408675	science and technology
0.4786292669	spatial and temporal
0.4786274819	minimum description
0.4785943471	least squares estimator
0.4785802766	continuous time
0.4785092134	offline training
0.4784914728	provide experimental results
0.4784798325	boosting approach
0.4784632160	challenging real world
0.4784277543	observable environments
0.4784270969	corrupted by noise
0.4783796188	model weights
0.4783730435	interesting results
0.4783150386	hybrid approaches
0.4782840971	contextual features
0.4782395246	simple rules
0.4782280187	computer graphics
0.4782151395	high noise
0.4781839315	higher order network
0.4781175155	alternative approach
0.4781146761	rationale behind
0.4780979813	multivariate time series classification
0.4780432863	approach opens
0.4780358575	ill posed inverse
0.4779107569	nonlinear feature
0.4778568214	agent interactions
0.4778462153	surrogate optimization
0.4778444106	method identifies
0.4777915762	multi label datasets
0.4777747213	efficient bayesian
0.4777732634	aggregation strategy
0.4777700211	target accuracy
0.4777380806	static and dynamic
0.4776862017	adversarial example
0.4776700308	outcome model
0.4776271374	parallel stochastic
0.4776114484	baseline results
0.4775998090	minibatch stochastic
0.4775682530	analysis pipelines
0.4775379121	high sample complexity
0.4774917814	great performance
0.4774783494	stochastic systems
0.4774520562	supervised fine tuning
0.4774091779	cause effect relationships
0.4773946537	model predictive
0.4773881396	depth based
0.4773330524	divergence regularization
0.4773207571	neural sequence
0.4773060722	discrete and continuous
0.4772463808	importance measures
0.4772148275	noise conditions
0.4771858979	simple modification
0.4771844564	response model
0.4771599225	non linearity
0.4770819993	upper and lower
0.4770703229	multi class classification problems
0.4770497013	data driven approach
0.4770467993	first order
0.4770083182	competitive baseline
0.4770034902	train set
0.4769785739	collecting data
0.4769573660	non asymptotic
0.4769153619	divide and conquer approach
0.4769044886	compare and contrast
0.4769020469	pricing problem
0.4768721616	expressive enough
0.4768086403	real world dataset
0.4768072254	per iteration
0.4767982239	approach extends
0.4767607242	algorithm yields
0.4767569314	domain classification
0.4767562413	high computational efficiency
0.4767544346	complex temporal
0.4767188701	attack and defense
0.4766882564	existing frameworks
0.4766864512	particle based variational
0.4766155311	framework offers
0.4765690801	theoretical analysis and empirical
0.4765626969	information based
0.4765394751	back propagating
0.4765207515	vital importance
0.4764577027	comprehensive overview
0.4764278196	achieves high accuracy
0.4764221077	fr \
0.4764110943	efficiently learns
0.4763979088	non parametrically
0.4763886977	organizing maps
0.4763662242	natural settings
0.4763320328	32 bit
0.4762995846	solving complex
0.4762835287	simultaneous learning
0.4762835175	vulnerable to adversarial perturbations
0.4762715783	extract relevant
0.4762627362	model based methods
0.4762265228	model selection problem
0.4761882995	related works
0.4761733590	online reinforcement learning
0.4761302618	provide preliminary
0.4761263460	sgd algorithm
0.4759992008	discriminator and generator
0.4759992008	capabilities and limitations
0.4759452938	behavior modeling
0.4759451008	synthetic data generated
0.4759398398	f divergences
0.4759264674	underlying signal
0.4759229630	real gene expression
0.4759145408	rank one matrix
0.4759093231	precision quantization
0.4758666358	put forward
0.4758612408	high dimensional linear
0.4758494120	challenging benchmarks
0.4758404737	reduced training
0.4758237254	local algorithms
0.4758061345	achieve similar
0.4758004299	significant computational
0.4757505838	domains including
0.4757352876	programming model
0.4756757675	global maximum
0.4756494081	optimal dynamic
0.4756428122	framework enables
0.4756202293	projection onto
0.4756039331	privacy and security
0.4755775655	network properties
0.4755698192	algorithm learns
0.4755521864	graph inference
0.4755324350	covariance parameters
0.4754940449	ill defined
0.4754598998	promising future
0.4754582504	exploration mechanism
0.4754495433	provide tight
0.4754358328	hybrid deep learning
0.4754333645	higher classification accuracy
0.4754159206	stationary policy
0.4753946345	algorithms assume
0.4753830063	simultaneously estimate
0.4753519399	deterministic gradient
0.4753285739	susceptible to adversarial attacks
0.4753227494	learning rate and momentum
0.4753104093	lower memory
0.4751900992	generative graph
0.4751674201	algorithms fail
0.4751332513	black box models
0.4751165688	generative framework
0.4750924621	significant potential
0.4750619970	theoretical support
0.4749882488	data heterogeneity
0.4749875989	method scales
0.4749523535	algorithm performs
0.4749229044	differentiable loss functions
0.4749168381	second order stationary points
0.4748451912	machine learning and signal
0.4748113013	potential advantages
0.4747821926	class distance
0.4747316165	label queries
0.4747166989	without replacement
0.4746955279	multi task setting
0.4746873676	hazards model
0.4746551238	easily extended
0.4746471547	high dimensional state
0.4746410292	asymptotic setting
0.4746141169	computational and statistical efficiency
0.4746040126	regret lower
0.4745865286	detect outliers
0.4745746205	variational inference method
0.4744856585	whole slide images
0.4744845801	learned efficiently
0.4744761436	policies learned
0.4744693487	negative rates
0.4744329917	nonparametric setting
0.4744108849	relational graphs
0.4743832583	positive and negative
0.4743761291	numerical algorithms
0.4742914474	aware neural
0.4742503711	design decisions
0.4742485936	bit matrix completion
0.4742118297	continuous and discrete
0.4742033472	attacks and defenses
0.4741467798	nonparametric prior
0.4741108450	factor analysis model
0.4740873647	method of moments
0.4740708099	tensor analysis
0.4740371707	zero training error
0.4740230830	learning repository
0.4740227537	solution space
0.4740170786	research problem
0.4739726750	interpretable features
0.4739227880	standard measures
0.4739218921	embedding representation
0.4739076283	compressed model
0.4738683430	shallow neural
0.4738039706	typically designed
0.4737861200	major concern
0.4737577594	web data
0.4736656298	artificial networks
0.4736583890	comprehensive survey
0.4736172027	advanced machine
0.4735550447	theoretical results showing
0.4735541487	signal processing applications
0.4735494404	prior studies
0.4735475616	competitive learning
0.4735187357	multiple targets
0.4734946036	minimax concave
0.4734770348	interesting features
0.4734367511	set classification
0.4734254742	programming formulation
0.4733875583	deep learning technologies
0.4733287579	mat \
0.4732976945	high sensitivity
0.4732955247	entire space
0.4732791576	r rao
0.4732766897	naive approach
0.4732323999	inverse hessian
0.4732312791	measurement units
0.4731967335	sgd updates
0.4731749541	concept called
0.4731719986	sensing systems
0.4731484695	trained agent
0.4731298123	linear stochastic
0.4730974190	projection method
0.4730535659	compression and acceleration
0.4730222889	user and item
0.4730128145	boosting method
0.4730093746	set function
0.4730026629	potentially large
0.4730022740	classification layer
0.4730007350	prove theoretically
0.4729530049	8 255
0.4729054275	parameter matrix
0.4728861310	sub linear regret
0.4728051196	spectral techniques
0.4727846444	derive upper bounds
0.4727786273	automatically learned
0.4727664816	log partition function
0.4727600299	divergence estimation
0.4727558512	feature noise
0.4727165916	users and items
0.4726764121	regression parameters
0.4726582191	tasks include
0.4726506809	existing methods fail
0.4725791904	settings involving
0.4725182154	common choice
0.4724756725	minimax error
0.4723940247	forecasting performance
0.4723921801	commercially available
0.4723767818	effectively train
0.4723642638	important problem
0.4723429921	traffic network
0.4723047167	common representation
0.4722858665	informed neural network
0.4722362068	recommendation system
0.4722022262	frame based
0.4721753143	main challenges
0.4721266760	optimal power
0.4721046959	large neural networks
0.4720927005	allocation strategy
0.4720118868	control task
0.4720099972	deep model
0.4719896078	10 fold cross
0.4719633932	distributed energy
0.4718986601	rank tensor completion
0.4718881812	main reason
0.4718461882	iteration cost
0.4718398406	information theoretic framework
0.4718151030	chain monte
0.4718090006	takes advantage
0.4718027528	predictive systems
0.4717249268	self exciting
0.4717060725	wide association
0.4716949694	information gathered
0.4716861074	information matrix
0.4716740950	outperforming prior
0.4716494378	applied directly
0.4716399944	data efficient learning
0.4716319975	projections onto
0.4716137812	data transformations
0.4714577462	algorithm improves
0.4714316844	additional regularization
0.4714271883	underlying factors
0.4713719148	significantly outperforms previous
0.4713629243	recent ideas
0.4713342332	multiple sensors
0.4713072449	regression approach
0.4713047597	self taught learning
0.4713036849	unpaired data
0.4712529361	online display
0.4712497664	explicit and implicit
0.4712363204	quantification methods
0.4712358066	neural network parameters
0.4711922539	spatial graph
0.4711723340	empirically shown
0.4711377904	becoming increasingly
0.4711065697	manual feature
0.4710632089	expected cost
0.4710177144	model generates
0.4709690000	deep rnn
0.4709274842	data mining and machine
0.4709148869	control signal
0.4709120644	dense and sparse
0.4709084635	generative latent
0.4708980243	predicting labels
0.4708822189	targeted learning
0.4708771497	stochastic inference
0.4708637302	multi objective optimization problem
0.4708170848	probability flow
0.4708088418	outperform standard
0.4707545559	sampling process
0.4707476300	achieves lower
0.4706699769	clinical settings
0.4706224286	largest publicly
0.4706197364	outperforms alternative
0.4705785728	freely available
0.4705597799	simulations confirm
0.4705283402	per round
0.4705277432	successfully learns
0.4704851143	study reveals
0.4704193667	general activation
0.4703835566	leak information
0.4703740383	aggregation process
0.4703597506	large clusters
0.4703530677	data mining task
0.4703527825	extra cost
0.4703451583	general data protection
0.4702895130	proposed model outperforms
0.4701787393	image to image
0.4701770631	learning capabilities
0.4701750308	real valued data
0.4701413523	local clustering
0.4699903063	distribution parameters
0.4699508970	large volume
0.4699168813	suitable assumptions
0.4698212576	structure learning algorithm
0.4697012212	smooth optimization
0.4697001014	successfully apply
0.4696907910	research shows
0.4696888139	nodes and edges
0.4696580799	crucially depends
0.4696343697	popularly used
0.4696290056	obtain sharp
0.4695901133	supervised learning task
0.4695602251	hierarchical features
0.4695259180	building deep
0.4695041610	deep active
0.4694825666	linear inverse
0.4694264574	interaction prediction
0.4694047347	boosting trees
0.4693721199	strong results
0.4693548102	designed specifically
0.4693274844	deep multi agent
0.4693077431	simple local
0.4693028963	parametric approaches
0.4692433834	huge data
0.4692100572	fail to capture
0.4691743586	universal learning
0.4691479642	_ \ text
0.4691018617	stochastic optimization problem
0.4691013596	factors of variation
0.4690788633	improves significantly
0.4690353451	auxiliary network
0.4689824177	model free policy
0.4689616533	plugged into
0.4689515805	labeling tasks
0.4688679007	mathematical optimization
0.4688583943	provable performance
0.4688477089	evolving graph
0.4687937142	deep rl methods
0.4687932329	machine learning method
0.4687265318	global optimal
0.4687199957	geometrical properties
0.4686629231	swarm optimization
0.4686321601	shows promising
0.4686188589	model sizes
0.4685056576	functional analysis
0.4684994257	dramatic performance
0.4684514361	x_ n +
0.4684407667	y | x
0.4684215780	low dimensional data
0.4684012565	hard task
0.4683888518	negative result
0.4683875895	\ dots
0.4683755494	neural network predictions
0.4683323121	efficiently exploit
0.4683302353	concentration of measure
0.4682957690	memory resources
0.4682752326	fully data driven
0.4682642062	prediction mechanism
0.4682550316	method involves
0.4682415470	experiments performed
0.4682305409	nonlinear features
0.4682272645	based classification
0.4681727726	differentially private algorithm
0.4681587884	\ | _f
0.4681274842	mining and machine learning
0.4680938690	coarse grained model
0.4680911553	local interactions
0.4680708326	network initialization
0.4680027087	classifier accuracy
0.4679871287	reason behind
0.4679488665	learning enabled
0.4678857454	degree polynomials
0.4678715527	statistical leverage
0.4678698645	jointly estimate
0.4678628476	abstractive text
0.4678309786	calibration performance
0.4677691698	unsupervised learning techniques
0.4677314671	vulnerability to adversarial
0.4676994650	recently achieved
0.4676806814	optimal estimation
0.4676471472	weights and activations
0.4676413694	regression technique
0.4676028914	optimized efficiently
0.4675593460	specific instances
0.4675574966	methods ignore
0.4675363962	sample efficient learning
0.4675322913	linear time complexity
0.4675320104	video datasets
0.4675172627	step regret
0.4674922127	parameter posterior
0.4674455867	problem arising
0.4673080353	worst case performance
0.4672828582	lasso based
0.4672476251	network embedding methods
0.4672346324	modal data
0.4672289883	computation and storage
0.4671365916	source and target
0.4670851648	recent result
0.4670610857	iot data
0.4670007430	neural style
0.4668905370	linear state space
0.4668610848	resulting model
0.4668262633	x ray images
0.4667979359	reduce overfitting
0.4667745194	model fits
0.4667230184	improved regret
0.4666947695	produce high quality
0.4666880582	degree corrected stochastic
0.4666733287	paper establishes
0.4666616551	reveal important
0.4666112558	bayesian approximation
0.4666032407	popular machine
0.4665501664	large scale optimization problems
0.4665360133	extend existing
0.4665342195	vector valued reproducing
0.4665293528	produce accurate
0.4665145999	feature dimensions
0.4665054846	process latent variable model
0.4664816717	tracking performance
0.4664736677	initial experiments
0.4664686978	deep feature
0.4664273867	zero one loss
0.4663898437	existing analyses
0.4663528666	ability to distinguish
0.4663474081	reconstruction performance
0.4663469886	factors of variations
0.4663344054	black box predictive
0.4663179418	maintaining high
0.4662885299	similar scores
0.4662728316	present empirical results
0.4662281502	multiple independent
0.4661688748	align *
0.4661641316	complete knowledge
0.4661638378	nonlinear partial differential
0.4661511293	state space models
0.4661316146	f1 =
0.4661106934	convolutional generative
0.4660968155	network attacks
0.4660865955	minimal loss
0.4660825113	u shaped
0.4660785892	prior assumptions
0.4660298602	deep classifiers
0.4659797186	gaussian priors
0.4659763983	testing problem
0.4659587423	evidence showing
0.4659496114	dimensional representation
0.4659192415	traditional linear
0.4659104735	advantage actor
0.4658829753	global properties
0.4658755122	dimensional vector space
0.4658125814	making progress
0.4657239040	approach generates
0.4656501952	paper surveys
0.4656489433	quality of service
0.4656296201	ml classifiers
0.4656159313	01 loss
0.4656026672	aided diagnosis
0.4656013038	achieve higher accuracy
0.4655504452	finite sample error
0.4655257220	small step
0.4655040975	directly from raw
0.4654944615	server based
0.4654919929	field variational bayes
0.4654895850	true underlying
0.4654850198	adaptive design
0.4654796245	based heuristic
0.4654268896	nonlinear activation
0.4654044886	node and edge
0.4652545598	\ mathsf opt
0.4652492366	sparse gaussian graphical
0.4652433979	large scale multi
0.4652406720	spectral approach
0.4652307066	measure based
0.4652004132	memory and computation
0.4651817703	time evolving
0.4651707236	model captures
0.4650642733	variance reduced gradient
0.4650327084	recent times
0.4649943933	look up
0.4649472024	suggested method
0.4649462830	information contained
0.4649441343	training framework
0.4648320314	decades of research
0.4648138139	states and actions
0.4647771260	simultaneously address
0.4646718342	segmentation algorithms
0.4646696756	general activation functions
0.4646627364	made great progress
0.4646572179	box constraints
0.4646461483	past and future
0.4646454435	joint image
0.4646390753	stochastic bandit problem
0.4646362557	sparse feature
0.4646279377	poor results
0.4646275357	learning graph representations
0.4646146409	provide insight
0.4646106664	\ ldots
0.4646047532	efficiently computing
0.4645830997	online and offline
0.4645820314	storage and computation
0.4645737133	hidden features
0.4645231630	accelerated gradient method
0.4645064592	parameter sensitivity
0.4645043093	current knowledge
0.4644946959	learning pipeline
0.4644152670	costly and time consuming
0.4644100317	ensure convergence
0.4643639700	accuracy scores
0.4643146195	rate of convergence
0.4642887764	directly applied
0.4642686849	30 days
0.4642506801	fundamental tasks
0.4642358775	local or global
0.4641836675	open source framework
0.4641678542	framework generalizes
0.4641649428	dual learning
0.4641086070	conventional neural networks
0.4640997367	invariant networks
0.4640736409	deep convolutional network
0.4640708572	yields competitive
0.4640385258	small graphs
0.4640157089	convex optimization algorithms
0.4639418096	nonconvex objective
0.4638947510	based dimensionality reduction
0.4638593003	research gap
0.4637932122	hybrid inference
0.4637565204	additional structure
0.4637550537	stochastic dual
0.4636773247	emerging research
0.4636538308	output values
0.4636514284	gradient based learning
0.4636422824	dl methods
0.4636391370	smooth loss functions
0.4635228433	labeling process
0.4634983863	convolution and pooling
0.4634828228	language processing tasks
0.4634211300	active area of research
0.4633998979	control parameters
0.4633886930	third parties
0.4632594140	derive explicit
0.4632542797	robust control
0.4631458461	f principle
0.4631429575	sparse random
0.4630913393	laplace distributions
0.4630801680	zero training loss
0.4630631957	real robotic
0.4630556840	end to end fashion
0.4630546510	capable of handling
0.4630013248	true risk
0.4629779218	pattern recognition problems
0.4629554105	maximization algorithm
0.4629392042	discovery problem
0.4629287930	large bias
0.4628948593	deep reinforcement learning based
0.4628946173	task free
0.4628905055	paper studies
0.4628652261	increasingly large
0.4628506229	network sizes
0.4628505651	regression algorithm
0.4628171764	case by case
0.4628094505	shot learning tasks
0.4628091486	clustering aims
0.4628013161	large improvements
0.4627933321	label inference
0.4627712678	discrete choice models
0.4627566177	accuracy guarantees
0.4627337555	security applications
0.4626859202	scientific community
0.4626568303	definitions of fairness
0.4626469231	deep hierarchical
0.4625597522	finite vc
0.4625555670	meta knowledge
0.4625406990	optimization tools
0.4625300080	random inputs
0.4625200364	structural property
0.4625139406	arbitrary sets
0.4625025917	latent factor models
0.4623977987	real and synthetic data sets
0.4623892145	sampling set
0.4623849996	important question
0.4623763841	decomposition algorithm
0.4623482245	require solving
0.4623225686	lstm neural network
0.4622678618	exponential complexity
0.4622035007	boosting machine
0.4622026536	fully connected neural
0.4621948795	verification task
0.4621107975	linear mixed models
0.4620979422	leading cause of death
0.4620842304	complex relations
0.4620827209	effectively improve
0.4620821837	robust low rank
0.4620710869	training corpus
0.4620395330	understanding generalization
0.4620086782	training sequences
0.4619828412	specific challenges
0.4618996976	approach generalizes
0.4618941590	complex structure
0.4618606645	the cancer genome
0.4618469886	diagnosis and treatment
0.4618362027	analysis identifies
0.4618138663	tens of thousands
0.4618085900	variable selection methods
0.4617941586	allocation policy
0.4617783929	prediction confidence
0.4617492062	weight loss
0.4615841728	going beyond
0.4615713033	bayesian tensor
0.4615155135	current clinical
0.4614286732	simple idea
0.4614168972	provide comprehensive
0.4614057038	over parametrization
0.4613957844	data manipulation
0.4613918975	limited understanding
0.4613855873	publicly available
0.4613502476	protection against
0.4613353649	traditional reinforcement learning
0.4613082606	information complexity
0.4612988746	tree classifier
0.4612916108	achieve great
0.4612654074	method utilizes
0.4612512464	recognition problems
0.4612275974	basic properties
0.4612149204	powerful representation
0.4611513035	based spectral clustering
0.4611347399	input output examples
0.4610493292	structure based
0.4610165978	high dimensional data points
0.4610158433	generalizes to unseen
0.4610108461	based semi supervised learning
0.4610106901	simple to implement
0.4609766428	humans and machines
0.4609246240	auc =
0.4609229531	connected graphs
0.4609206476	term memory network
0.4609095749	black box methods
0.4608875531	cancer screening
0.4608816031	number of hidden layers
0.4608799053	random survival
0.4608735233	bayesian decision
0.4608395517	source separation problem
0.4608167413	dynamical system
0.4607812550	data augmentation methods
0.4607509306	property called
0.4607357856	policy gradient estimator
0.4606472901	agent reinforcement
0.4605861544	derive exact
0.4605773949	performance benefits
0.4604886842	co operative
0.4604820509	report experiments
0.4604537239	parameter distribution
0.4604246726	conducting experiments
0.4603788780	control actions
0.4603494498	defense against adversarial
0.4603181098	significant difference
0.4603001243	providing insights
0.4602511023	learning guarantees
0.4602445910	world graphs
0.4602369532	numerical evaluation
0.4602354890	fast greedy
0.4602047623	stochastic linear
0.4601478033	hierarchical mixture
0.4601207357	imaging systems
0.4600778445	offline and online
0.4600717425	nervous system
0.4600403863	monte carlo samples
0.4599957485	unlike standard
0.4599895405	\ text poly
0.4599305781	state information
0.4599175164	property optimization
0.4599030916	causal discovery methods
0.4598798892	monte carlo tree
0.4598062967	related techniques
0.4597503974	local linear convergence
0.4597232656	sensing data
0.4596803862	dynamic modeling
0.4596499576	achieves competitive results
0.4596373690	algorithm exploits
0.4596298143	function minimization
0.4596157916	cram \
0.4596128084	model parallel
0.4595926031	parameter vectors
0.4595725474	gradient algorithms
0.4595251625	approaches outperform
0.4595216446	generative neural network
0.4594841529	human users
0.4594303220	detection and localization
0.4593857352	linear estimators
0.4593788234	learning based framework
0.4593764947	extend previous
0.4593737444	well posed
0.4593685440	em based
0.4593405949	driven exploration
0.4592951214	evaluation framework
0.4592611579	under weak assumptions
0.4592013599	model types
0.4591749084	lack of transparency
0.4591635801	learning and reinforcement learning
0.4591439581	space exploration
0.4591359529	incomplete and noisy
0.4590822225	unsupervised graph
0.4590491411	metric learning methods
0.4590233208	high potential
0.4590139402	kernel method
0.4590065563	provably fast
0.4589993954	standard errors
0.4589656435	automatic analysis
0.4589600123	empirically analyze
0.4589016618	visual patterns
0.4588802475	outperformed existing
0.4588626059	signal to noise
0.4588469886	audio and visual
0.4587603890	data instance
0.4587483855	generation task
0.4587225986	reduction method
0.4586670244	small values
0.4586139761	non conjugate
0.4586002219	poor sample
0.4585823203	machine learning framework
0.4585740387	method offers
0.4585447961	neural process
0.4585309067	deep reinforcement learning methods
0.4585282247	deterministic function
0.4585171054	observed matrix
0.4584903816	low signal to noise
0.4584751793	data acquired
0.4584594267	active semi supervised
0.4584457562	risk minimization problems
0.4584144378	\ circ
0.4584029072	tracking data
0.4583915969	metric learning approach
0.4583301190	optimal decision making
0.4583175037	ensemble of decision trees
0.4583024215	entire data set
0.4582755638	implicit generative
0.4582486079	self ensembling
0.4582478514	accurately estimates
0.4582371287	projecting onto
0.4582356327	incorporate additional
0.4582185499	unique global
0.4581733139	similar guarantees
0.4581688273	transfer knowledge
0.4581652261	large capacity
0.4581592935	training methods
0.4581561482	increasing accuracy
0.4581339842	simple but powerful
0.4581136009	yield significant
0.4580720211	higher performance
0.4580583514	introduced recently
0.4580315138	specific properties
0.4579944877	model based learning
0.4579650602	embedding technique
0.4579269029	approach significantly outperforms
0.4579185528	achieves significantly
0.4579073144	feasible solution
0.4578594710	explicit modeling
0.4578527712	type i
0.4578308439	large database
0.4578010987	discrete set
0.4577451660	strong statistical
0.4577225617	machine learning task
0.4576059539	message passing neural
0.4576041368	schr \
0.4575212060	simultaneously achieves
0.4575064104	linear structure
0.4574600142	fusion methods
0.4574372333	trained efficiently
0.4573715876	unknown vector
0.4573661267	depends critically on
0.4573450445	consistent performance
0.4572537968	\ mbox
0.4572156169	storage complexity
0.4572073730	typically relies
0.4571765148	require fewer
0.4571657858	sequential nature
0.4571591126	data interpolation
0.4571249706	real world setting
0.4571029820	special focus
0.4570830506	training accuracy
0.4570711854	deep network architecture
0.4570659365	simple algorithms
0.4570658826	statistical learning methods
0.4570588420	approaches fail
0.4570530921	successful application
0.4570395910	processing techniques
0.4569992008	simplicity and effectiveness
0.4569448947	data description
0.4569393061	enable users
0.4569261232	increasingly applied
0.4569242878	raw image
0.4569234350	regularized gaussian
0.4569233911	sampling noise
0.4568078228	\ citep
0.4568046637	detailed information
0.4567636553	propagation of errors
0.4567629136	structural analysis
0.4567332403	clear understanding
0.4567165697	convolutional recurrent neural
0.4567161085	comprehensive experimental
0.4566619562	small noise
0.4565942164	operator theory
0.4565851944	hard negative
0.4564569869	held out test
0.4563771888	recent theoretical
0.4563697038	trained nn
0.4562815047	usage data
0.4562263962	multivariate distribution
0.4562199984	u statistics
0.4562054759	framework consisting
0.4561738462	linear prediction
0.4561701263	increasing demand
0.4561624244	non trivial
0.4561589401	online fashion
0.4561122740	model change
0.4561018048	suffer from poor
0.4560969886	security and privacy
0.4560764230	re id
0.4559804230	unsupervised detection
0.4559323609	regularization based methods
0.4558756220	additional input
0.4558614500	viable approach
0.4558601650	average treatment
0.4558550270	learning schemes
0.4558123938	deploying machine
0.4558079139	constrained devices
0.4557866780	memory costs
0.4557553687	review process
0.4556831052	likelihood evaluation
0.4555721872	mixture models
0.4555514665	| _p
0.4555469560	multiple factors
0.4555374838	simulation and real data
0.4554825485	area under
0.4554772818	data analysis and machine
0.4554770211	original model
0.4554596309	state of art
0.4553372190	subspace analysis
0.4553353907	promising approach
0.4553245074	modern dnns
0.4553123966	prior networks
0.4552303602	real world examples
0.4552021813	matrix factorization based
0.4551883070	network classifier
0.4551849280	multiple input
0.4551491771	improved significantly
0.4551414232	ive bayes
0.4551277247	significant success
0.4551031344	classification and link prediction
0.4550946951	identification accuracy
0.4550796994	efficiently explore
0.4549952634	feedback signal
0.4549898328	deep latent variable models
0.4549893521	\ sqrt dt
0.4549324656	stochastic algorithm
0.4548977673	cancer data
0.4548446743	stochastic gradient descent algorithm
0.4548340531	including sparse
0.4548239345	magnitude speedup
0.4548008081	_ t
0.4547428806	utilizing deep
0.4547409435	vector approximate message
0.4547354991	gradient descent training
0.4546909400	far reaching
0.4546080838	3d point cloud
0.4545886021	current studies
0.4545265156	class variance
0.4545213238	gained significant
0.4545034421	establish theoretical
0.4544763009	bits per
0.4544762536	computation and communication
0.4544555587	complex distributions
0.4544434886	real world benchmark
0.4544229963	mixture kernels
0.4543891320	underlying function
0.4543728967	personalized model
0.4541529835	address challenges
0.4541508716	initial step
0.4541193445	key property
0.4541018061	conditional generative models
0.4540575152	variable discovery
0.4539813187	prediction algorithm
0.4539666588	ranking data
0.4538705494	nonlinear state space
0.4538571760	random neural networks
0.4538422890	residual based
0.4538281101	large scale settings
0.4538002733	latency and energy
0.4537892710	learned online
0.4537637039	based active learning
0.4537636553	accurate and fair
0.4537543891	adversarial domain
0.4537370444	small networks
0.4536878586	highly non linear
0.4536800480	improves classification
0.4536555668	time dependent
0.4536464847	classifier output
0.4535987048	generalized canonical
0.4535732284	robust deep learning
0.4535677540	type inequality
0.4535421673	provide meaningful
0.4534491357	past decade
0.4534479216	numerical features
0.4534102180	exact marginal
0.4534019219	spectral learning
0.4533673855	experiments illustrating
0.4533633167	based systems
0.4533588500	erd \
0.4533347631	low rank optimization
0.4531941454	deep recurrent neural
0.4531580298	capture meaningful
0.4531048027	activity classification
0.4530725621	factorization framework
0.4530616870	simulation model
0.4529766428	treatment and outcome
0.4529060714	driven optimization
0.4528759564	image set
0.4528746836	commonly applied
0.4528452347	proposed method achieves
0.4528451824	performs on par
0.4528349370	simultaneously capture
0.4527775401	flow networks
0.4527712883	statistical applications
0.4527428192	linear regression model
0.4527132938	recently observed
0.4526930407	large scale bayesian
0.4526550695	generalizes previous
0.4526189796	strategy called
0.4525952217	parallel algorithm
0.4525864459	physical features
0.4525824927	improve robustness
0.4525478633	modeling power
0.4525330052	r packages
0.4525268419	linear neural networks
0.4524910191	code to reproduce
0.4524862380	key technique
0.4524632595	bayesian paradigm
0.4524227319	speech recognition tasks
0.4524192225	conceptual framework
0.4523991266	far exceeds
0.4523784917	synthetic data and real world
0.4523161929	3d shapes
0.4522581265	under mild conditions
0.4522073146	mathematical theory
0.4522002803	explicit form
0.4521732665	outperforms current
0.4521539938	performs similarly
0.4521524750	statistically and computationally
0.4520659313	\ neq
0.4520647091	noise rates
0.4520419113	fast and accurate
0.4520020106	directly predict
0.4519910469	predict labels
0.4519303220	vision and speech
0.4519107120	shown superior performance
0.4518561072	^ 7
0.4518469886	fields of science
0.4518460934	easy to compute
0.4518087881	advantages and limitations
0.4517806514	similar behavior
0.4517798820	obtain improved
0.4517634935	query sample
0.4517030541	structured information
0.4516191770	group factor
0.4515984957	q learning
0.4515561707	spatio temporal graph
0.4515464147	hidden information
0.4515131216	detection problems
0.4514884602	synthetic and real
0.4514867188	provide theoretical guarantees
0.4514754264	millions of data points
0.4514676706	step forward
0.4513767108	short and long
0.4513566964	neural trf
0.4513170782	obtain significant
0.4513160022	rl benchmarks
0.4513045398	fast evaluation
0.4512429514	learning community
0.4512294925	retrieval performance
0.4512213904	term structure
0.4512190660	embedded applications
0.4511761817	optimal values
0.4511420243	objective values
0.4511366011	an open source python package
0.4511365897	non euclidean
0.4511359529	social and biological
0.4510987226	empirically outperforms
0.4510685959	based collaborative filtering
0.4510612963	versatile framework
0.4510340134	specific examples
0.4510012637	rates of convergence
0.4509953977	communication and computation
0.4509768633	regularization approach
0.4509689449	environment interactions
0.4509480900	non convex objectives
0.4509214141	emerging applications
0.4508381198	large sample limit
0.4507680545	machine learning models
0.4507579009	target networks
0.4507057243	encoding based
0.4506867788	framework extends
0.4505335908	semi supervised deep learning
0.4504701318	robustness to adversarial attacks
0.4504491735	crafting adversarial
0.4504489036	solving problems
0.4504482522	a b testing
0.4504347943	potential solutions
0.4504164400	network modeling
0.4503951878	pre trained network
0.4503526975	oracle model
0.4503097067	language learning
0.4502930446	matches or outperforms
0.4502229117	probability score
0.4501699767	natural choice
0.4501136623	compact representation
0.4500718914	applied statistics
0.4500043836	data mining tasks
0.4499264757	real life data
0.4499109979	experiments comparing
0.4498493831	^ 4
0.4497857248	aggregation methods
0.4497681806	achieves faster convergence
0.4497464773	unclear whether
0.4497416143	establish connections
0.4497205388	scaling properties
0.4497194798	finite time analysis
0.4496904825	local nash
0.4496606098	framework yields
0.4496308277	stochastic sampling
0.4496269050	order optimality
0.4496153695	neighbor classification
0.4495939178	stable algorithms
0.4495733988	intelligence research
0.4495558586	potentially improve
0.4495426350	common benchmark
0.4495330283	convex finite sum
0.4495281674	strong conditions
0.4495191183	learning technique
0.4495140554	significant challenge
0.4494941583	multiple feature
0.4494847889	stochastic coordinate
0.4494316732	smoothness parameters
0.4494006395	path distance
0.4493987451	hybrid algorithm
0.4493935226	prioritized experience
0.4493848826	showing improved
0.4493764399	provide quantitative
0.4493173290	generally difficult
0.4492962992	important challenges
0.4492934036	accuracy levels
0.4492855009	specific task
0.4492528854	drawn significant
0.4492016704	standard techniques
0.4491327934	depends crucially on
0.4491218720	convolutional architecture
0.4490967955	simple examples
0.4490764556	gradient and hessian
0.4490678220	deterministic and probabilistic
0.4490227789	time series anomaly detection
0.4490222889	quality and diversity
0.4490212857	hierarchical agglomerative
0.4489947618	linear space
0.4489936625	variable model
0.4489599497	neural network approach
0.4488400152	sparse features
0.4488388958	human learning
0.4488320314	categorical and continuous
0.4488025331	computational fluid
0.4487658370	sgd based
0.4487592602	simulated and real data
0.4487354771	single and multi
0.4486934967	extensive experiments conducted
0.4486934967	conducted extensive experiments
0.4486652955	pre training tasks
0.4485957057	signal analysis
0.4485734139	trade offs between
0.4485038351	off policy reinforcement learning
0.4484794416	regret upper
0.4484556327	effectively learns
0.4484082787	dimensional feature spaces
0.4483922442	self paced learning
0.4483523828	techniques fail
0.4483163236	learning embeddings
0.4483110534	efficiently compute
0.4483011732	processing power
0.4482924669	vision community
0.4482901066	embedding approach
0.4482242500	comparative evaluation
0.4481898615	entire graph
0.4481879092	crucial role
0.4480875077	best practices
0.4480781659	in hospital mortality
0.4480695778	inducing regularization
0.4480646010	15 minutes
0.4480512240	expert human
0.4480102229	empirical covariance
0.4480090539	optimal action
0.4479799648	side effects
0.4479783963	shown impressive
0.4479684865	nearest neighbor based
0.4479542148	clustering step
0.4478967514	aggregation algorithm
0.4478653909	minimization based
0.4477781268	side effect
0.4477774943	mining techniques
0.4477664691	exact and approximate
0.4476824115	studies suggest
0.4476801907	potential application
0.4476792808	algorithmic approach
0.4476480641	proposed framework outperforms
0.4476163156	strong correlation
0.4475233220	kernel canonical correlation
0.4475077997	geared towards
0.4473674494	typical examples
0.4473650221	strategy achieves
0.4473332418	outperforming previous
0.4473123720	important issue
0.4472915211	provide formal
0.4472883284	modern data
0.4472818246	publicly available datasets
0.4472626252	non stationary environments
0.4472617756	high dimensional dataset
0.4472555127	important classes
0.4471909730	memory space
0.4471522194	variational formulation
0.4471422565	robust estimator
0.4471188126	broad range
0.4470774024	accurately model
0.4470575007	siamese neural
0.4470521100	earlier methods
0.4470451056	density map
0.4470297789	empirical analyses
0.4470258021	dataset consisting
0.4469870658	generation model
0.4469629659	similar quality
0.4469111378	= 0
0.4468548298	nonlinear dependencies
0.4468545092	moving beyond
0.4468264439	unlike previous methods
0.4467861283	discrete case
0.4467705441	full precision
0.4467690185	practically useful
0.4467499574	tend to infinity
0.4467461701	straight through
0.4466890334	max game
0.4466598337	theory shows
0.4466223502	time windows
0.4466207592	augmentation strategy
0.4466183199	shared features
0.4466009911	source to target
0.4465770298	large unlabeled
0.4465127785	stationary and non stationary
0.4464251610	poses significant
0.4464149557	model order
0.4463934132	research studies
0.4463881252	deterministic methods
0.4463773550	complex sequential
0.4463384525	important characteristics
0.4463295447	incremental aggregated
0.4462923723	observed empirically
0.4462610898	sufficient data
0.4462374439	derive asymptotic
0.4462286078	important information
0.4461342883	deep learning models
0.4461284984	single user
0.4461282375	separate training
0.4461219865	few shot meta learning
0.4461217214	data transmission
0.4460973216	model ensemble
0.4460656105	partially observed data
0.4458819195	fully bayesian approach
0.4458462082	model independent
0.4458033187	\ nu
0.4457932850	existing gcn
0.4457416578	hierarchical networks
0.4457297547	statistical classification
0.4457240773	control input
0.4457219211	guided training
0.4457204460	high dimensional cases
0.4456364568	practical aspects
0.4455532961	scale traffic
0.4455281755	sparse and dense
0.4455159159	hold great
0.4454777946	speed up
0.4454599761	long time series
0.4454527730	support decision making
0.4454038408	evidence shows
0.4453462767	existence and uniqueness
0.4453324576	neighbor classifier
0.4453258619	consistently achieves
0.4453019711	generate meaningful
0.4452952865	well suited
0.4452947055	simple and efficient
0.4452839814	derive conditions
0.4452259338	geometric approach
0.4451820107	robust dnns
0.4451422408	method recovers
0.4451271246	achieved significant
0.4451136347	provide explicit
0.4450526517	explicit user
0.4450524631	private stochastic
0.4450443918	cut off
0.4449953977	lower and upper
0.4449932933	computational scheme
0.4449647716	low data
0.4448857997	gaussian measurement
0.4448330829	structured sparsity inducing
0.4448067665	extreme learning
0.4447935192	presents unique
0.4447907253	linear regression problems
0.4447235499	encrypted data
0.4446999088	network community
0.4446978977	simulated and real
0.4446959889	achieve impressive
0.4446816532	achieving competitive
0.4446679113	main objective
0.4446546027	modelling techniques
0.4446459154	ssl algorithms
0.4446380508	demonstrated promising
0.4445199347	randomized algorithm
0.4444860186	openly available
0.4444606920	regression error
0.4444239108	fully adversarial
0.4443560459	emerging technique
0.4443389299	linear non gaussian
0.4443231157	adaptive sequential
0.4442935314	operates directly
0.4442868898	bayesian optimal
0.4442746652	sparse inverse
0.4442270604	synthetic tasks
0.4441908597	existing multi view
0.4441785276	achieves substantial
0.4441559131	generalized gaussian
0.4441509102	strong and weak
0.4441190329	composite objective
0.4440906606	\ zeta
0.4440639804	group anomaly
0.4440600719	al algorithms
0.4440488652	method achieved
0.4440474747	fusion model
0.4440339372	retrieval systems
0.4440189659	unlike prior
0.4440038089	unsupervised learning algorithms
0.4439872767	proposed approach performs
0.4439774746	transfer network
0.4439602915	\ citet
0.4439196462	standard convex
0.4439190258	positive data
0.4439189791	information encoded
0.4439042536	mean squared
0.4438968768	realistic case
0.4438755443	decision support system
0.4438493487	online newton
0.4437786978	smoothing technique
0.4437501853	stochastic version
0.4437501747	significant research
0.4436879974	rank matrix
0.4436711797	bandit linear
0.4436459875	easily adapted
0.4436306240	numerically demonstrate
0.4436223250	batch and online
0.4435849001	gap between theory and practice
0.4435831904	centralized learning
0.4435492646	\ xi
0.4435348269	rate schedule
0.4435141571	geometric features
0.4435109715	spectral clustering method
0.4434926847	simple closed form
0.4434887203	model yields
0.4434884827	extends existing
0.4434835819	challenging environments
0.4434705997	parallel and distributed
0.4434511010	whole body
0.4434487627	no longer
0.4434480726	outperforms classical
0.4434367802	predictive analysis
0.4434096745	important cases
0.4433868746	natural solution
0.4433830923	labeling problem
0.4432836339	deep linear
0.4432811814	forest regression
0.4432766554	partition data
0.4432498894	statistical interpretation
0.4432332944	image and text
0.4432296579	facilitates learning
0.4432285415	high rate
0.4432249056	\ min_
0.4431862074	stochastic optimization method
0.4431510231	becoming increasingly important
0.4431384867	design methodology
0.4430817932	outperforms prior
0.4430590417	user specified
0.4430500839	edge labels
0.4429710423	achieve superior performance
0.4429656565	sources of variability
0.4429472273	enable fast
0.4429273021	inspired algorithms
0.4429037398	involve multiple
0.4428763295	art baseline
0.4428452665	generating random
0.4428320314	numerical and categorical
0.4428169896	training distribution
0.4427825432	node classification and link
0.4427825330	private machine learning
0.4427590249	bayesian sampling
0.4427429292	non gaussian
0.4426831297	tree model
0.4426315919	previously shown
0.4426225084	individual level data
0.4426004614	federated learning algorithms
0.4425905360	\ textsc
0.4425809259	validation techniques
0.4425689492	input data matrix
0.4425663055	performance estimation
0.4425334353	shows improved
0.4425296887	cooperative learning
0.4424988338	established methods
0.4424375560	high dimensional bayesian
0.4423807431	traditional bayesian
0.4422932339	one class classifiers
0.4422798367	time reversal
0.4422013192	trained deep neural networks
0.4421437162	differentiable objective
0.4421359529	supervised or unsupervised
0.4420939281	likelihood estimates
0.4420332199	adversarial game
0.4419926860	fair decision
0.4419782270	maximum likelihood based
0.4418755523	standard technique
0.4418464988	vae model
0.4418276071	i ve
0.4418055762	major problems
0.4418012861	embedding learning
0.4418006980	bias and variance
0.4417874560	sampling approach
0.4417630410	improve sample efficiency
0.4416945944	classification network
0.4416939835	two stage
0.4416143332	convex and non convex
0.4416029119	critical importance
0.4415523668	training signals
0.4415101635	alternative direction
0.4414388325	learning classifiers
0.4413764574	final test
0.4413363193	\ otimes
0.4413315560	multi label classification problems
0.4413259806	back translation
0.4413211202	learning stability
0.4413013537	flexible and powerful
0.4412930150	statistical techniques
0.4412840710	meg data
0.4412723689	one step ahead
0.4412500307	runs in polynomial
0.4412394207	small sets
0.4412315992	balance exploration
0.4412235228	variation regularization
0.4412207347	real world data set
0.4411509102	powerful and flexible
0.4411198972	\ underline
0.4411122715	user input
0.4411015032	achieve high accuracy
0.4410150564	routing problems
0.4409881644	asymptotic upper bounds
0.4409845374	equal error
0.4408995256	scale problems
0.4408839745	recent successful
0.4408556956	distribution discrepancy
0.4408184288	target posterior
0.4407957108	previously unseen data
0.4407931154	prediction algorithms
0.4407833843	upper confidence bound algorithm
0.4407275144	flow problem
0.4407164990	minimal sufficient
0.4406991755	massive amounts
0.4406905515	projected onto
0.4406794386	traditional convolutional
0.4406669224	feasible set
0.4406593324	concave distributions
0.4406515024	organizing map
0.4406194619	deep multi agent reinforcement
0.4405972247	high and low
0.4405854991	sized clusters
0.4405230248	rank matrices
0.4405175951	time lagged
0.4404951321	traditional techniques
0.4404927818	entire network
0.4404735115	rigorous analysis
0.4404648738	batch active
0.4404566604	algorithm dependent
0.4403827047	convex settings
0.4403585901	rna seq data
0.4403177021	small dataset
0.4403046572	computationally and statistically
0.4402857579	stable learning
0.4402319918	renyi random
0.4401853766	require expensive
0.4401456654	model based algorithms
0.4401191169	computational properties
0.4400642474	entropy and mutual
0.4400286650	complete characterization
0.4400067660	efficiency and scalability
0.4400015246	| _0
0.4399222378	architecture called
0.4399120038	challenging setting
0.4399079443	image classification problems
0.4399011062	require large amounts
0.4398784842	accuracy increases
0.4398685177	selection operator
0.4398389089	accurate and reliable
0.4398200429	model driven
0.4396878857	representation learning methods
0.4396867652	state tomography
0.4396754434	timescale stochastic
0.4396325288	affect performance
0.4396115255	intelligence techniques
0.4395698003	logit model
0.4395658079	clean and noisy
0.4395163834	model identification
0.4394815086	explicit control
0.4394748538	dimension reduction techniques
0.4394735314	deep energy based
0.4394666923	online learning problems
0.4394665804	extraction attacks
0.4394645494	reasonable computational
0.4394452461	rna sequencing data
0.4394260777	multiple parallel
0.4394186688	dimensional inputs
0.4393616676	suffers from poor
0.4393554379	requires extensive
0.4393257590	statistical complexity
0.4393117293	related issues
0.4392980195	standard gaussian
0.4392971949	driven approach
0.4392706033	top 5
0.4392632333	dimensional features
0.4392365608	| e |
0.4392284573	particle markov chain monte
0.4392033187	\ langle
0.4391922548	idea behind
0.4391353395	large amounts of labeled
0.4390746882	decides whether
0.4390697648	any accumulation point
0.4390247132	empirical measure
0.4390134677	regularized optimal
0.4390125526	learning and data mining
0.4389615345	general settings
0.4389260482	common feature
0.4388971301	\ bigr
0.4388919806	related approaches
0.4388667479	without sacrificing
0.4388542942	difficult tasks
0.4388450871	standard image
0.4388198422	research and development
0.4388052143	input text
0.4387932491	10 ^ 5
0.4387536579	source domain adaptation
0.4387526824	robust inference
0.4387332944	global and local
0.4386970851	improved performance compared
0.4386911207	without compromising
0.4386899035	\ footnote
0.4386759474	generalized loss
0.4386737396	non iid data
0.4386618706	regularization problems
0.4386241674	local and global
0.4386131778	train faster
0.4385998025	regression or classification
0.4385927761	empirical improvements
0.4385350124	stable performance
0.4385180567	generating processes
0.4384970917	\ rho
0.4384471912	transfer learning approach
0.4384446914	automatic selection
0.4384347117	zero shot recognition
0.4384338567	feature weights
0.4384271685	automatically infer
0.4383961897	improved classification accuracy
0.4383895144	conventional federated
0.4383647513	$ \ ell_ 2,1
0.4383348323	extensive literature
0.4383076843	additional assumption
0.4382682974	outperform classical
0.4382594251	crucial step
0.4382131335	components analysis
0.4381361481	applying deep
0.4381174884	potential solution
0.4381103192	non monotonic
0.4380673506	statistical distance
0.4380044707	modeling and forecasting
0.4380016974	robust distributed
0.4379897526	strong empirical results
0.4379584622	forgetting problem
0.4379483647	practical effectiveness
0.4379378027	accuracy and computational efficiency
0.4379310141	require additional
0.4379083670	low dimensional linear
0.4379060329	human visual
0.4378285220	distributed training of deep neural networks
0.4378208870	substantial performance
0.4377964877	linear least squares
0.4377957044	underlying data
0.4377056583	features and labels
0.4376722268	method significantly outperforms
0.4376478385	extensive experimental results demonstrate
0.4375875853	original problem
0.4375787965	mean squared errors
0.4375548025	applications of machine learning
0.4375368049	analyzing high dimensional
0.4375171578	guided deep
0.4375121804	yields higher
0.4374773991	semi supervised learning approach
0.4374452937	\ mapsto
0.4374424167	| v |
0.4374362917	continuous time dynamics
0.4374011242	end to end differentiable
0.4373998723	detection datasets
0.4373726841	maximum mutual
0.4373696526	\ cdots
0.4373581415	graphical model structure
0.4373412704	annealed importance
0.4373283527	supervised machine learning algorithms
0.4373173014	sparse components
0.4373048934	test datasets
0.4372607304	fast optimization
0.4372412028	channel state
0.4372385979	topic models
0.4372381169	real and simulated data
0.4371958143	alternates between
0.4371747404	learn efficiently
0.4370827082	self imitation learning
0.4370694870	an information theoretic
0.4370192699	providing accurate
0.4370055654	range correlations
0.4369989710	effectively deal
0.4369708960	distributed manner
0.4369494779	communication network
0.4369260894	downstream classification
0.4368574533	convolutional generative adversarial
0.4367756192	performance comparable
0.4367639124	learning and artificial intelligence
0.4367620716	multi objective bayesian
0.4367357817	expensive and time consuming
0.4367330665	performance prediction
0.4366922180	efficient solution
0.4366776698	regularized learning
0.4366637674	continuous normalizing
0.4366580856	hierarchical learning
0.4365595293	non reversible
0.4365036713	sparse network
0.4364932589	node based
0.4364890616	labeled and unlabeled data
0.4364279151	era of big data
0.4363719674	efficiently learning
0.4363686038	number of clusters
0.4363415892	network construction
0.4363151101	mixtures of experts
0.4362828713	deep semi supervised
0.4362498818	statistical framework
0.4362470640	parametric and nonparametric
0.4362463934	deep and wide
0.4361721151	without losing
0.4361637307	accurately and efficiently
0.4361628967	extraction method
0.4361569915	optimal learning
0.4361498345	discrete graphical models
0.4360678220	convex and smooth
0.4360611039	demonstrate superior performance
0.4360430640	based attack
0.4360428579	small subsets
0.4360133116	outperform conventional
0.4359974116	deep learning based approach
0.4359818163	synthetic and real life
0.4359550049	method compares
0.4359538242	practical cases
0.4359462180	collapse problem
0.4359041219	armed bandit algorithm
0.4358226389	precision @
0.4358175769	structural and functional
0.4358129748	fewer training
0.4358064967	adversarial bandit
0.4357978161	leverage recent
0.4357940715	relu neural network
0.4357726187	number of iterations
0.4357373749	nodule detection
0.4357195847	feature selection approach
0.4356755665	algorithm exhibits
0.4356431922	a central limit theorem
0.4356259287	difficult to train
0.4356114971	extensive comparison
0.4356046342	filter based
0.4356029193	require extensive
0.4355918233	probabilistic neural
0.4355244908	data flow
0.4355145787	matrix and tensor
0.4354262466	generative and discriminative
0.4354117975	resulting estimator
0.4353619485	\ bf
0.4353448482	structured learning
0.4352859611	sampling problem
0.4352365608	| s |
0.4352159298	complex functions
0.4351896326	online classification
0.4351176953	compute and memory
0.4350858062	error probabilities
0.4350783188	problem arises
0.4350502851	hard problems
0.4350402098	optimal tuning
0.4349871949	datasets validate
0.4349594824	based ensembles
0.4348952503	easy to learn
0.4348668968	pruning approaches
0.4348371741	follow up
0.4347913633	computationally more efficient
0.4346556885	comprehensive analysis
0.4346478632	well conditioned
0.4345847693	deep learning classifiers
0.4345757182	techniques developed
0.4345698845	dimensional hilbert
0.4345566295	semidefinite matrices
0.4345125279	put forth
0.4344409953	high dimensional feature space
0.4344323773	non uniform
0.4344200897	multiple metrics
0.4343623657	regression and classification tasks
0.4343114467	synthetic and real world data
0.4343022542	sample drawn
0.4342998033	important challenge
0.4342943213	type information
0.4342403481	classical control
0.4342074436	sparse precision
0.4342022705	independence structure
0.4341950069	low rank plus
0.4341945197	motivation behind
0.4341851644	data regimes
0.4341723441	generative probabilistic
0.4341620644	single and multiple
0.4341114780	typically rely
0.4340965472	based subspace clustering
0.4340616955	effective regularization
0.4340267109	combining machine learning
0.4340090266	optimal bounds
0.4340073273	\ textsf
0.4339398602	iterate convergence
0.4338555419	complexity scales
0.4338490091	outperforms conventional
0.4338476729	semi implicit variational
0.4338276592	reconstruction approach
0.4338175769	computational and storage
0.4338011160	exhibit complex
0.4337461758	\ | _2
0.4337254368	highly dependent
0.4336653852	distributed statistical
0.4336106135	relies solely on
0.4336065191	multi layer neural network
0.4335979583	neural networks learn
0.4335788282	real world image
0.4334619791	leads to significant improvements
0.4334496099	ahead forecasting
0.4334235269	covid 19 cases
0.4333981890	gradient descent optimization
0.4333785715	deep layers
0.4333683684	true parameter
0.4333367739	discovery algorithms
0.4333207893	additive white gaussian
0.4332429721	architecture combines
0.4331927266	level accuracy
0.4331421605	g cnns
0.4331396448	efficient implementations
0.4330936078	including lasso
0.4330631025	\ l ojasiewicz
0.4330342483	sequential manner
0.4330159813	identify potential
0.4330053472	multivariate case
0.4329976554	anomaly detection algorithm
0.4329912413	major issue
0.4329904184	original input
0.4329391114	developed theory
0.4329387748	stochastic networks
0.4329208665	derive closed form
0.4328872577	identify important
0.4328783525	standard neural network
0.4328254756	transition and reward
0.4328003526	general result
0.4327740602	dl algorithms
0.4327682806	rigorous framework
0.4327013799	algorithms exist
0.4326923265	finite time horizon
0.4326543549	based optimizers
0.4326407124	traditional supervised
0.4326195111	noise and outliers
0.4326064334	sub populations
0.4325705714	visualization method
0.4325576390	per iteration cost
0.4324813492	approximation theorem
0.4324688547	safe learning
0.4324469282	unified optimization
0.4324150485	algorithm takes
0.4323960012	vast amounts of
0.4323933116	identify interesting
0.4323285170	matching minimax lower
0.4322723766	shuffle model
0.4322683596	test of independence
0.4322440670	frac | \ mathcal s |
0.4322325980	\ propto
0.4321998452	preliminary numerical
0.4321964106	^ 3
0.4321824875	data augmentation method
0.4321729797	population data
0.4321686356	optimal trade
0.4321588466	timely manner
0.4321162192	year period
0.4320915920	increasing research
0.4320908954	learning in neural networks
0.4320120540	d wave
0.4319371369	data diversity
0.4319344421	real data analysis
0.4319241020	solve problems
0.4319082155	correlation functions
0.4318975202	individual tasks
0.4318467483	decentralized parallel
0.4318380777	identify key
0.4318363028	non intrusive load
0.4317683703	\ vert
0.4317624624	end to end learning
0.4317604270	suboptimal results
0.4316989535	method compares favorably
0.4316818608	ability to handle
0.4316437028	non convex optimization problems
0.4316375517	areas of science
0.4316218610	quadratic convergence
0.4316122297	original data set
0.4316004132	typically small
0.4315906258	publicly available at https
0.4315473186	1d cnn
0.4315359133	critical issue
0.4315204324	rl approaches
0.4315137341	providing insight
0.4314890003	concept based
0.4314880380	temporal sequence
0.4314822273	data aware
0.4314789840	improve exploration
0.4314491787	design strategies
0.4313298022	supervised learning problem
0.4313117164	method trains
0.4312974081	popular tools
0.4312932857	general intelligence
0.4312770114	non convex non concave
0.4312632268	local training
0.4312324762	deep metric
0.4312241674	linear and nonlinear
0.4312170159	complex behavior
0.4311765211	non linear dimensionality reduction
0.4311755387	model construction
0.4311675536	density estimation tasks
0.4311619740	robust prediction
0.4311253536	inference strategies
0.4310736088	url https
0.4310510764	sparse variational
0.4309802109	distortion ratio
0.4308822368	10 ^ 6
0.4308628175	simple case
0.4308536048	translation based
0.4308487081	sampling complexity
0.4308302753	f score
0.4308260923	simultaneous estimation
0.4307647721	data selection
0.4307593096	\ bigl
0.4307546190	data sequences
0.4307319202	strong robustness
0.4307281186	becoming increasingly popular
0.4307274616	fourier based
0.4307064663	trained and tested
0.4306438768	main purpose
0.4306405128	real case
0.4306341967	experiments demonstrating
0.4305248270	probabilistic generative model
0.4305059459	optimal convergence
0.4304817412	policy networks
0.4304622711	biased gradient
0.4304492858	mathbb r ^ n \ times
0.4304432586	direct comparison
0.4304122789	unsupervised training
0.4303811034	fusion based
0.4303798710	processing systems
0.4303332142	prediction ability
0.4302970688	derive sufficient
0.4302817477	learn and adapt
0.4302332944	statistical and computational
0.4302040948	demonstrate improved
0.4301499631	universal function
0.4301347948	training of neural networks
0.4301254064	non monotone
0.4300840377	real scenarios
0.4299372502	giving rise to
0.4299305910	discrete time
0.4299256337	higher order information
0.4299012162	non markovian
0.4298730029	dynamics simulations
0.4298463896	regression and classification
0.4298456264	\ gg
0.4297593096	\ theta_
0.4297225979	local metric
0.4296761365	learning objective
0.4296727866	locally differentially
0.4296402266	sequence modeling tasks
0.4296238447	data augmentation technique
0.4296133879	procedure called
0.4296080563	input and output
0.4296047029	decide whether
0.4295976901	preference information
0.4295722812	limited feedback
0.4295656241	sensing image
0.4295620555	alternating gradient
0.4295508045	systems require
0.4295500393	intrinsic properties
0.4294729564	learning machine
0.4294432840	\ widehat
0.4294323244	based technique
0.4293949048	framework learns
0.4293872218	graph based learning
0.4293626745	discrete graph
0.4293481461	temporal scales
0.4293376015	modeling human
0.4293332583	learning and inference
0.4293231557	one class svm
0.4292977245	improved classification
0.4292697713	network independent
0.4291887716	datasets shows
0.4291876316	data generating distribution
0.4291872664	fairness and accuracy
0.4291762297	point selection
0.4291614679	response data
0.4291551043	latent space representation
0.4291479972	real gene
0.4290771166	= 1,2
0.4290360588	expression recognition
0.4290019872	high dimensional systems
0.4289995148	results corroborate
0.4289526177	approach offers
0.4289503696	supervised learning techniques
0.4289189304	augmentation method
0.4288562499	level prediction
0.4287837835	standard data sets
0.4287490936	spectral clustering methods
0.4287458800	complete set
0.4287437188	simple neural networks
0.4287130450	real world clinical
0.4286701488	latent community
0.4286682609	high memory
0.4286397368	paper derives
0.4285738061	de facto standard
0.4285728140	model evidence
0.4285722516	testing problems
0.4285106640	real world benchmarks
0.4284248126	loss based
0.4284115923	results revealed
0.4284098429	real world images
0.4283763074	\ approx
0.4282952024	matrix completion problems
0.4282021981	matching upper and lower bounds
0.4281815351	sublinear time
0.4281182840	\ subseteq
0.4281049362	common structure
0.4281029870	multi model
0.4280532128	architecture selection
0.4280388433	convolutional long short term
0.4279984686	time consuming
0.4279973380	\ nabla
0.4279823049	interactive image
0.4279745711	defending against adversarial
0.4279372241	best arm
0.4279356251	gradient based meta
0.4278700780	process level
0.4278140492	conduct several experiments
0.4277330743	analysis framework
0.4277192401	art approaches
0.4276930165	learn representations
0.4276663016	\ max_
0.4276597889	training and test
0.4276105343	automatic model
0.4276088551	model pruning
0.4275834336	experimental results showing
0.4275711108	top eigenvector
0.4275432540	potential bias
0.4274418878	real graphs
0.4274227764	generating mechanism
0.4274082674	experiments corroborate
0.4274066484	cifar 10 and imagenet datasets
0.4273370906	underlying data distribution
0.4273202873	analysis showing
0.4273185860	data driven manner
0.4272640095	easy to train
0.4271879753	rely heavily on
0.4271310871	model update
0.4271131980	image and video
0.4270032318	interpolates between
0.4269844886	detection and segmentation
0.4269642968	data partition
0.4269293856	sub quadratic
0.4269125402	implement and evaluate
0.4267943256	extending previous
0.4267792512	adaptive graph
0.4267791978	article introduces
0.4267533761	framework achieves
0.4267458736	real and fake
0.4267395205	specific components
0.4267234890	approximate sampling
0.4267117457	supervised information
0.4266294032	automatic music
0.4266255373	probably approximately
0.4266016929	ranking and selection
0.4265737160	data driven decision
0.4265727966	labeled and unlabeled
0.4265670736	& p 500
0.4265642488	sparse additive models
0.4265426222	gaussian width
0.4265426005	raw sensor
0.4265281989	a posteriori
0.4264865602	code publicly
0.4264730646	variational problem
0.4264683953	\ rangle
0.4264653896	k fold
0.4264473642	number of function evaluations
0.4263901222	one class support vector
0.4263346723	key challenges
0.4263264556	inference and learning
0.4263233428	nystr \
0.4263222687	real fmri
0.4262754303	adaptation techniques
0.4262285844	partitioned data
0.4262138883	perform model selection
0.4261739940	\ lesssim
0.4261582670	population covariance
0.4261513676	standard model
0.4260880140	fast kernel
0.4260813930	generalizes existing
0.4260706548	desirable theoretical
0.4260658360	unsupervised approaches
0.4260227328	\ ell
0.4259998452	prohibitive computational
0.4259790180	regression method
0.4258576479	fuzzy min max
0.4258311822	quantification of uncertainty
0.4258047159	stationary environment
0.4257205997	unsupervised and supervised
0.4257192109	stage procedure
0.4256852227	achieving higher
0.4256798553	algorithm runs
0.4256752245	estimating causal
0.4256371895	dictionary learning problem
0.4256210302	conditional neural network
0.4256102564	gaussian variables
0.4255412982	learning capacity
0.4255058076	stochastic gradient descent methods
0.4254705136	high predictive accuracy
0.4254116665	theory and practice
0.4254088777	optimal representations
0.4254075656	review recent
0.4253794521	feedback setting
0.4253760365	achieves strong
0.4253386809	sparse gaussian graphical models
0.4253047052	decomposed into
0.4252939237	unbiased estimation
0.4252768395	counter example
0.4251820367	specific structure
0.4251000406	deep multi task
0.4250854307	moving average model
0.4250600935	local learning
0.4250311661	maintaining comparable
0.4250209604	provide sufficient conditions
0.4250136553	efficiently and effectively
0.4250064038	search framework
0.4248422563	likelihood method
0.4248347877	decoding algorithms
0.4248209289	likelihood criterion
0.4247893863	data items
0.4247571936	calibrated uncertainty
0.4247241674	supervised and unsupervised
0.4247205997	learning and planning
0.4246997539	tension between
0.4246913585	modeling techniques
0.4246685241	readily applied
0.4246354593	mixed model
0.4246250837	real world graph
0.4246225819	risk minimization problem
0.4245822074	optimal decision
0.4245706806	comparison experiments
0.4245176285	prediction network
0.4244858704	mean variance
0.4244837173	approximate dynamic
0.4244528551	single index models
0.4244393367	interpretable representation
0.4244028992	model obtains
0.4243963500	construction methods
0.4243910132	classic machine
0.4242969484	existing gan
0.4242125507	allocation scheme
0.4241815699	non i.i.d
0.4240900325	proposed algorithm performs
0.4240715861	divided into
0.4240426430	exponential improvement
0.4240215583	an open source
0.4240064161	high dimensional estimation
0.4239829484	minimal computational
0.4239299770	8 bits
0.4239294535	unsupervised deep
0.4238854266	online inference
0.4238712979	similar problems
0.4238495614	capable of producing
0.4238079017	supervised loss
0.4238057987	deep convolutional generative
0.4237911257	explicit knowledge
0.4237876142	inner workings
0.4237733152	| |
0.4237212399	statistical approach
0.4237205997	small and large
0.4237205997	robustness and accuracy
0.4237177290	achieves sublinear
0.4235788441	number of trainable parameters
0.4235400153	machine learning repository
0.4234680487	takes advantage of
0.4233587376	difficult to obtain
0.4233305754	and machine learning communities
0.4232241674	classification and regression
0.4231878977	design and implementation
0.4231553220	f divergence
0.4231264556	clustering and classification
0.4231045818	non stationary bandit
0.4230238946	iterative adversarial
0.4230212310	streams of data
0.4230100798	general recipe
0.4230091563	positive correlation
0.4229240088	propose and evaluate
0.4229107912	high dimensional matrix
0.4228633016	based solutions
0.4228610258	proposed approach yields
0.4228530203	least square regression
0.4228512060	\ mathit
0.4228377535	unknown labels
0.4228181946	real time traffic
0.4227936790	distance learning
0.4227782273	quantum computer
0.4227781755	training and validation
0.4226536450	topological data
0.4225852534	predict future
0.4225842799	estimation strategy
0.4225773331	\ textbf
0.4225467540	assistance systems
0.4225296175	trained bert
0.4225252092	probabilistic approaches
0.4224801271	interpretable deep
0.4224633628	dependent regret
0.4224586491	unified perspective
0.4224166132	finite time
0.4223688786	pursuit algorithms
0.4223631980	shallow and deep
0.4223285529	likelihood model
0.4223155025	real world medical
0.4222132895	assumptions underlying
0.4222065247	gradient based hyperparameter
0.4221549145	world state
0.4221505412	encoder architecture
0.4221130091	reconstruction tasks
0.4221100722	model consistently outperforms
0.4220741859	higher order graph
0.4220690429	u net architecture
0.4220118237	list of items
0.4220101722	second order moments
0.4219986980	detection and tracking
0.4219871952	learn disentangled
0.4219158097	classifier achieves
0.4219135263	networks trained
0.4219133719	model achieved
0.4219047230	efficient and scalable
0.4218916567	large scale learning problems
0.4218727445	large scale machine
0.4218535056	learning parameters
0.4218487292	classification and prediction
0.4218375825	build upon
0.4218054866	policy evaluation problem
0.4217978333	machine learning and data
0.4217882299	limited range
0.4217344129	class instances
0.4216783605	experimental results illustrate
0.4216765451	metric learning algorithm
0.4216392485	distributed robust
0.4216080400	transfer learning tasks
0.4215934782	single tree
0.4215916315	learning and optimization
0.4215707706	tailed distributions
0.4215584572	ensemble regression
0.4215539953	prediction method
0.4215522838	observations and actions
0.4215437536	temporal and spatial
0.4215222215	invariant kernels
0.4214865088	flow of information
0.4214690998	robust adaptive
0.4214681108	key factor
0.4214656755	trained and evaluated
0.4213763397	automated methods
0.4213310340	\ varphi
0.4213259827	almost perfect
0.4212797230	training and testing
0.4212548189	covariance model
0.4212405587	challenging benchmark
0.4211689505	empirically and theoretically
0.4211667618	fields including
0.4211520819	matrix adaptation
0.4211058077	next frame
0.4210829672	existing domain adaptation
0.4210767696	well understood
0.4210665436	measures of uncertainty
0.4210551674	convolutional neural network based
0.4210025265	method successfully
0.4209923802	evaluations demonstrate
0.4209531189	transfer learning techniques
0.4209422268	neural network optimization
0.4209389607	exponential rate
0.4209172840	approach named
0.4209150490	large real world
0.4208998326	evaluation set
0.4208868404	provide accurate
0.4208591328	complying with
0.4208146075	competitive performance compared
0.4207646281	optimal arms
0.4207276782	training of deep neural networks
0.4207104202	convex and nonconvex
0.4206914515	previous study
0.4206884445	stochastic environment
0.4206535377	test phase
0.4206290142	sampling based methods
0.4206218982	weather events
0.4206095037	metric learning based
0.4205984494	sparse dictionary
0.4205509781	ability to learn
0.4205484980	convolutional encoder
0.4205049138	priori unknown
0.4205016204	tune parameters
0.4204998676	significant impact
0.4204875700	global representation
0.4204712381	outperforms existing approaches
0.4204085239	real world problem
0.4203770869	classification or regression
0.4203640900	log marginal
0.4203545644	current and future
0.4203329968	graph based methods
0.4203040999	approach performs
0.4202953034	recent machine learning
0.4202576144	nonparametric mixture models
0.4202418350	individual data
0.4202312536	deterministic and stochastic
0.4202308782	| | x | |
0.4202100838	subspace spanned by
0.4201132513	existing meta learning
0.4200656827	capable of capturing
0.4200531313	regularized maximum
0.4200399973	high dimensional image
0.4200349884	challenging datasets
0.4200187994	convolutional and recurrent
0.4199748784	out of bag
0.4199103080	aimed at
0.4198760762	based clustering methods
0.4198231630	based architecture
0.4198197126	linear activation functions
0.4197994797	unknown target
0.4197828405	methylation data
0.4197398194	adversarial framework
0.4197074381	jin et
0.4196939293	sensing framework
0.4195841938	one hot
0.4195697036	encoder based
0.4195558134	reduction step
0.4195424953	demonstrate significant
0.4195326728	var model
0.4195303949	correction methods
0.4195178727	\ rho_
0.4195166266	high dimensional discrete
0.4195017907	imitation and reinforcement
0.4194999018	framework for analyzing
0.4194405188	hundreds of millions
0.4193887572	optimal resource
0.4193703986	bounds derived
0.4193250568	multiple levels
0.4193175769	effectively and efficiently
0.4192781214	control variables
0.4192388346	machine learning based systems
0.4192123798	incorporating additional
0.4192022953	formal framework
0.4191748101	well calibrated
0.4191469156	simulated and real data examples
0.4191313532	proof of convergence
0.4191304279	reconstruction problems
0.4191070604	recent attention
0.4190608043	non homogeneous
0.4190209832	discovery methods
0.4189264556	requires additional
0.4188864966	resources required
0.4188631439	multi linear
0.4186922687	accuracy and robustness
0.4186441345	under covariate shift
0.4186016929	prior and posterior
0.4185777374	additional training data
0.4185639124	intelligence and machine learning
0.4185584221	distribution learning
0.4185412242	selecting features
0.4185168239	image size
0.4184964338	demand data
0.4184376798	discrete nature
0.4184198549	stochastic contextual
0.4183611965	high computation
0.4183585955	challenging domains
0.4183267450	regression settings
0.4183178220	modeling and inference
0.4181975448	sharp contrast
0.4181764732	vulnerable to adversarial
0.4181719059	fed into
0.4181432849	sharp convergence
0.4181335634	flexible bayesian
0.4180912144	clustering process
0.4180742868	experiments on real world
0.4180661365	deep linear neural
0.4179954408	approach utilizes
0.4179818741	learning setups
0.4179377537	chen et
0.4179047230	propose and analyze
0.4178833634	mean field approximation
0.4177922743	private training
0.4177909494	recent algorithms
0.4177495229	data generation process
0.4177370641	contrast to existing approaches
0.4176439270	learned attention
0.4176308830	community detection algorithm
0.4176162307	dimensional noisy
0.4176083892	noisy matrix
0.4175689052	feature detection
0.4175121074	term dependencies
0.4175077472	federated multi
0.4174417353	graph dependent
0.4174183201	complexity guarantees
0.4174031888	based adversarial training
0.4173728462	compete against
0.4173545644	detection and diagnosis
0.4173301557	probabilistic regression
0.4172841964	policy search algorithms
0.4172414295	low and high
0.4171334105	text and image
0.4170494789	multi way
0.4170297855	attacks against
0.4170281740	an active research area
0.4170071576	random forest method
0.4169516544	general setting
0.4169293913	numerical performance
0.4168648806	learn meaningful
0.4168579453	efficiently approximate
0.4168512016	infinite data
0.4168350445	robust federated
0.4168228933	tensor learning
0.4168115088	stochastic and adversarial
0.4168066461	gradient langevin
0.4167922185	compressing deep
0.4167648784	extensive experiments on real world datasets
0.4167603403	existing datasets
0.4167520191	approach learns
0.4167306481	shows improvements
0.4167178727	\ delta_
0.4167056366	shown to converge
0.4166526534	real life problems
0.4166278061	fields of machine learning
0.4165073422	theoretical and algorithmic
0.4164780236	unknown state
0.4164427180	black box access
0.4164261810	geometric perspective
0.4163486413	cancer dataset
0.4163073668	denoising algorithm
0.4163006980	optimization and generalization
0.4162784688	efficient solutions
0.4162187804	stochastic first order
0.4161951282	dimensional regime
0.4161633874	regression and classification problems
0.4161041395	results showing
0.4159790397	wide range
0.4159708255	distributed multi task
0.4158750288	standard classification
0.4158648772	learned prior
0.4158550784	overall survival
0.4157555205	\ | _1
0.4157492476	semi supervised learning tasks
0.4157099904	optimal selection
0.4156860542	complex high dimensional
0.4156812635	^ \ ast
0.4156777510	theoretical advantages
0.4156532291	explainable machine
0.4156102020	test results
0.4155898273	supervised task
0.4155364403	generation network
0.4155156824	model estimation
0.4155048991	multiple samples
0.4154877239	results validate
0.4154605196	standard algorithms
0.4154502383	including image
0.4153678650	multiple signals
0.4153595012	sub optimal
0.4153439624	dimensional image
0.4153426709	cross validation method
0.4153287424	achieved promising
0.4152960331	framework leverages
0.4152763230	noisy training
0.4152241290	prior model
0.4152104202	speed and accuracy
0.4151104883	generate adversarial
0.4150638828	systematic analysis
0.4150476380	supervised approach
0.4150396216	autoregressive models
0.4150224459	infinite state
0.4150149558	robustness to adversarial perturbations
0.4150121448	high level representations
0.4150061398	safe reinforcement
0.4149986980	spectral and spatial
0.4149538023	artificial and real world
0.4149530437	number of epochs
0.4149497859	erd \ h o s
0.4148903673	methods in deep learning
0.4148166440	algorithm obtains
0.4147776034	approach aims
0.4147555567	past few years
0.4147371847	self bounding
0.4147299275	factorization method
0.4146045644	discriminative and generative
0.4145898041	| x |
0.4145678826	deep learning strategy
0.4145430996	\ textrm
0.4145200463	specific characteristics
0.4145174448	continuous distribution
0.4144956412	adversarial model
0.4144754756	one pass
0.4144659762	methods perform
0.4143351266	point to point
0.4143180040	data normalization
0.4142147838	target domain data
0.4142062248	batch of data
0.4141773041	approximation based
0.4141416523	control algorithm
0.4141156427	parametric probability
0.4141152869	theoretical connections
0.4140709041	linear and logistic
0.4140708736	theoretical assumptions
0.4140450406	distributions of data
0.4138905972	assumption does not hold
0.4138773732	stemming from
0.4138763913	adaptation methods
0.4138559597	\ mu
0.4138110310	high level tasks
0.4135798941	lead to severe
0.4135798142	log partition
0.4135201619	multi task model
0.4135072407	fast matrix
0.4134530596	reinforcement learning approach
0.4134298180	accurate and interpretable
0.4134227512	per pixel
0.4133827290	building upon
0.4133230759	benchmark data
0.4133097302	feature and label
0.4133049577	lines of research
0.4132937536	accuracy and speed
0.4132652465	including image classification
0.4132550471	reward settings
0.4132047463	specific patterns
0.4131932360	dynamic feature
0.4131854719	online mirror
0.4131733675	previously proposed methods
0.4131283739	scalability to large
0.4131072880	facilitate learning
0.4131020581	datasets of varying
0.4130998443	embedding algorithm
0.4130924878	illustrative example
0.4130518324	learning and statistics
0.4130044707	sample of size
0.4129383636	previously seen
0.4129038993	interplay between
0.4128860104	principled framework
0.4128840313	efficient and effective
0.4128739389	two timescale
0.4128735436	\ phi
0.4128454651	goes beyond
0.4128121857	post processing method
0.4127895581	theory and algorithms
0.4126483371	real line
0.4126449887	above chance
0.4126291628	structure learning problem
0.4126190246	far fewer
0.4126020581	phase of training
0.4125589736	understanding complex
0.4125506175	local representations
0.4125188721	deep rl algorithm
0.4125035821	markov chain monte carlo sampling
0.4125029591	free case
0.4124862411	capitalizing on
0.4124803792	distributed across multiple
0.4124789331	convex empirical risk
0.4124227135	\ lambda
0.4124216316	random network
0.4123953052	achieves near optimal
0.4123657147	deep learning technique
0.4123620551	\ rm deg _ \ rm
0.4123095716	programming problems
0.4122158991	observable markov decision processes
0.4121906300	evaluation data
0.4121834365	improves upon
0.4121533776	common information
0.4120816792	control applications
0.4120437536	train and test
0.4120412292	linear and quadratic
0.4120366842	machine learning field
0.4119908949	depends upon
0.4119744803	large scale deep neural networks
0.4119415050	multiple trajectories
0.4119240088	state and action
0.4118479576	language inference
0.4118224937	research focuses
0.4118092623	training environments
0.4117925455	storage and computational
0.4117844886	node and graph
0.4116698752	cifar 10 and mnist
0.4115965608	^ th
0.4115756086	data driven optimization
0.4115718178	synthetic problems
0.4114706193	efficient neural
0.4114546102	detection and classification
0.4114450755	product based
0.4114379142	switch between
0.4114076869	robust tensor
0.4114032555	execution time
0.4113521545	powerful and efficient
0.4113328048	training instance
0.4112657545	representation learning on graphs
0.4112294085	federated training
0.4112252305	semi supervised training
0.4111469031	algorithm performance
0.4111178220	analysis and prediction
0.4110938210	input examples
0.4110851522	mnist datasets
0.4110734170	optimal posterior
0.4110575007	training and inference
0.4110371256	data blocks
0.4110033204	propagation algorithm
0.4109954509	expert data
0.4109220152	numerical method
0.4109047230	theoretical and practical
0.4109012930	learning processes
0.4108926122	expensive to compute
0.4108442687	vulnerability of deep neural networks
0.4108410709	experiments on real datasets
0.4108353585	effectiveness and scalability
0.4108223419	training data sets
0.4107963804	machine learning literature
0.4107895306	proposed approach outperforms existing
0.4107833416	real world benchmark datasets
0.4106792375	under resourced
0.4106045644	efficiency and effectiveness
0.4105598694	regularization function
0.4105472526	standard evaluation
0.4105411404	learning sparse
0.4105278110	completion methods
0.4105164840	privacy preserving data
0.4104559258	trained and validated
0.4104178746	model's predictive
0.4104163206	massive open
0.4104005904	get stuck
0.4103430110	easy to understand
0.4103323662	prediction power
0.4102997841	waiting time
0.4102973253	self explaining
0.4102861889	existing nas
0.4102861171	order tensor
0.4102677316	optimal approximation
0.4102453137	robust to outliers
0.4102445627	high quality image
0.4102434533	present and analyze
0.4102312536	accuracy and efficiency
0.4102312536	accurate and efficient
0.4102042967	direct approach
0.4101938153	non linear
0.4101553575	reward prediction
0.4101317793	function parameters
0.4100276328	load monitoring
0.4100157265	near neighbor
0.4099857309	yields superior
0.4099534047	probabilistic latent variable
0.4099430674	\ rightarrow
0.4099124789	deep network architectures
0.4098696208	lead to poor
0.4098627043	^ 5
0.4098356171	design and implement
0.4098304911	hundreds of times
0.4097562738	general and flexible
0.4097275972	data views
0.4097263169	binary classification task
0.4097075030	matrix reconstruction
0.4097060544	class representations
0.4095951463	metric based meta
0.4095946246	trained from scratch
0.4095561473	output distribution
0.4095401817	somewhat surprisingly
0.4094857777	network datasets
0.4094517866	fields of research
0.4093662694	quality images
0.4093633836	simulation studies and real data
0.4093401706	non separable
0.4093076615	recurrent graph
0.4092852668	shed light
0.4092574303	achieves significant improvements
0.4092455655	computationally efficient method
0.4092335013	wide and deep
0.4092046350	learning from demonstration
0.4092020465	small neighborhood
0.4091649960	test set accuracy
0.4091374343	common space
0.4091282692	predictive quality
0.4091179255	mixed effects models
0.4090896071	memory and compute
0.4090705577	wide variety
0.4090678265	item interaction
0.4090645850	lack theoretical
0.4090437961	target matrix
0.4090077056	element method
0.4089650358	deep neural network models
0.4089498617	unlike most existing
0.4089439365	nonlinear partial
0.4088815009	forecasting tasks
0.4088453844	regression estimators
0.4088427609	mixture model based
0.4088249803	rich source
0.4088158739	memory and computational
0.4087844886	matrix of rank
0.4087607464	test distribution
0.4087598444	simulated and real datasets
0.4087338989	ever growing
0.4086905299	extends previous
0.4086844224	superior performance compared
0.4086688512	omic data
0.4086078831	effective means
0.4085773331	\ texttt
0.4085339922	based schemes
0.4085197781	real and synthetic datasets
0.4085075690	data driven techniques
0.4084891973	embedding framework
0.4084101199	accuracy and scalability
0.4083575420	single variable
0.4082606881	multiple step
0.4081551409	capture rich
0.4081229501	based control
0.4081181909	neural decision
0.4080991867	clustering of data
0.4080945787	robust and sparse
0.4080437536	efficiency and accuracy
0.4080228055	leading to poor
0.4079947450	inference process
0.4079927881	minimization framework
0.4079837257	| _2 ^ 2
0.4079596642	ability to capture
0.4079131804	sequence information
0.4079047230	theoretical and empirical
0.4078818044	\ omega
0.4078737436	definite kernel
0.4078606045	power prediction
0.4078059574	samples of data
0.4077784587	robust neural networks
0.4077434533	stability and generalization
0.4076465608	* *
0.4076175074	method consistently outperforms
0.4075894328	sample point
0.4075854202	robust and efficient
0.4075809444	typical approach
0.4075804964	approximate algorithms
0.4074782794	distillation method
0.4074685744	method constructs
0.4073954813	bayesian group
0.4073528949	computation and memory
0.4073143250	utility based
0.4072962661	= \ sum_
0.4072948494	nonparametric learning
0.4072470803	euclidean data
0.4072341579	direct application
0.4072291982	dimensional signal
0.4071896136	interpretable prediction
0.4071768520	estimation of causal effects
0.4071184533	stochastic and deterministic
0.4071124979	\ mathsf
0.4071005459	provide convergence guarantees
0.4070917674	draw connections between
0.4070904674	\ mathbf x_0
0.4070744782	\ kappa
0.4070647457	stochastic combinatorial
0.4069639175	nn classifier
0.4069397902	learning bounds
0.4069037188	benchmarked against
0.4069026997	neural variational
0.4068176128	small random
0.4068138530	resnet model
0.4066802748	gaussian process models
0.4066765262	develop and analyze
0.4066596918	unknown number
0.4066595036	attack algorithm
0.4066466282	stochastic neural networks
0.4066282746	distributed framework
0.4065955371	arbitrarily high
0.4065941163	large and small
0.4065037584	\ ln
0.4064198761	orders of magnitude faster than
0.4063729915	time frequency representation
0.4063544990	model learning
0.4063406755	training and prediction
0.4063167963	learning architectures
0.4062942756	semi markov model
0.4062590936	dynamic decision
0.4062576020	capture long term
0.4062558506	fl model
0.4062339880	related algorithms
0.4062081282	correcting codes
0.4061830674	\ tau
0.4061567264	tuning process
0.4061553821	factorization algorithms
0.4061423407	efficient strategy
0.4061045644	effectiveness and efficiency
0.4060865113	neural network based classifiers
0.4059760351	fails to capture
0.4059596058	| y
0.4059378977	training and evaluating
0.4058859529	spatial and spectral
0.4058440716	true posterior
0.4057881794	learning based methods
0.4057127641	linear support vector
0.4057087310	generalization in deep
0.4057040964	standard benchmark datasets
0.4056804586	the past decade
0.4056737425	standing challenge
0.4055818044	\ sigma
0.4055677960	imitation learning framework
0.4055534303	sparse k means
0.4055480013	capable of extracting
0.4055437536	effective and efficient
0.4055329225	arbitrary functions
0.4055231531	linear component
0.4055116804	numerous methods
0.4054456529	rank decomposition
0.4054380820	value functions
0.4053934320	an empirical study
0.4053804238	scene classification
0.4053706083	standard stochastic gradient
0.4053675197	power system
0.4053555618	identification methods
0.4053025316	categorized into
0.4052701725	constrained learning
0.4052383191	among other things
0.4052282860	intuition behind
0.4052066531	real world classification problems
0.4050737285	\ ell_q
0.4050706747	slower than
0.4050612542	converted into
0.4050576140	non convexity
0.4050287261	latent stochastic
0.4049761503	et al
0.4049626450	aims at finding
0.4049462299	called deep
0.4049358810	fourier feature
0.4049040779	\ sum_
0.4048847439	hierarchical sparse
0.4048499433	near optimal regret
0.4048477354	\ sf
0.4048230987	co occur
0.4048205733	clustering model
0.4047837598	streaming learning
0.4047712310	accuracy and fairness
0.4047558274	experiments demonstrated
0.4047468977	efficiently and accurately
0.4047237149	node and graph classification
0.4046701684	imitation learning algorithms
0.4046159597	\ cdot
0.4046069212	facilitate future
0.4045976751	accuracy and interpretability
0.4045302200	d wave quantum
0.4045257616	benchmarks demonstrate
0.4044262072	design process
0.4043092563	violated in practice
0.4042340769	supervised representation learning
0.4042312536	computational and statistical
0.4041985640	parametric statistical
0.4041865046	highly important
0.4041627030	suffer from severe
0.4041484372	large dimension
0.4041349383	bandit convex
0.4041330720	quality index
0.4040818915	recent empirical
0.4040419779	computational and memory
0.4040370945	infinity norm
0.4040226739	results of experiments
0.4039777893	outlier detection method
0.4039499124	algorithms offer
0.4039117328	noisy setting
0.4038746475	optimization challenges
0.4038608357	language based
0.4038396071	data and code
0.4038281107	binary black
0.4038110768	run time
0.4037712310	performance and scalability
0.4037544215	easier to learn
0.4037520390	policy optimization algorithms
0.4037185995	talk about
0.4036878977	practical and theoretical
0.4036803217	existing benchmarks
0.4036782294	analysis and visualization
0.4036635250	labelled training
0.4036457611	driving task
0.4035937555	latent tree models
0.4035508459	classification and regression tasks
0.4035463654	stochastic batch
0.4035148336	batch data
0.4035109008	\ epsilon ^ 3
0.4035053559	aims to learn
0.4034424493	dimensional geometric
0.4034047230	loss in accuracy
0.4033913163	current input
0.4033611758	common underlying
0.4033577314	dimensional distributions
0.4033410649	results offer
0.4033391699	exact posterior
0.4033245575	motivating example
0.4032937187	neighbor based
0.4032623783	central importance
0.4032280746	stochastic dual coordinate
0.4032145607	regulatory network
0.4032040685	approach represents
0.4031553397	descent step
0.4031326956	non parametric regression
0.4030881537	strategy outperforms
0.4030860006	incorporated into
0.4030678647	simple and intuitive
0.4030591827	layer output
0.4030371621	maximizing mutual
0.4030350142	sensitive to outliers
0.4030177762	corrected block
0.4030109010	spectrum analysis
0.4030087515	experiments on real world datasets
0.4030042351	embedding based methods
0.4029220241	robust loss
0.4029187536	estimation and inference
0.4028694803	regret of order
0.4028634166	tools and techniques
0.4028556130	weight learning
0.4028405334	distinction between
0.4028404093	minor changes
0.4028195053	\ ll
0.4028049261	latent space model
0.4027927214	connected neural
0.4027534493	efficient and flexible
0.4027104202	code and data
0.4027095499	two time scale
0.4026862856	second order optimization
0.4026707844	goodfellow et
0.4026590681	suffers from slow
0.4026187007	an extensive simulation study
0.4026030612	capable of generating
0.4025790795	nonsmooth problems
0.4024127002	\ mathbf x _1
0.4024079776	deep learning solutions
0.4023769152	datasets mnist
0.4023762642	efficient active learning
0.4023124131	passed through
0.4022843715	model shows
0.4022445395	waveform model
0.4022434533	signal and noise
0.4021325411	drop in replacement
0.4020876936	nonparametric modeling
0.4020632775	hierarchical data
0.4019414160	generalized bayesian
0.4019175473	deal of attention
0.4018934053	machine and deep learning
0.4018858718	ranking tasks
0.4018274279	model output
0.4017942213	carlo simulation
0.4017826560	ranking algorithm
0.4017151139	fast online
0.4015722167	arm identification problem
0.4015563094	scalable implementation
0.4015416322	problem domains
0.4015068891	effective solutions
0.4015062738	embeddings of distributions
0.4015046398	scalable and accurate
0.4015041634	non existence
0.4014845569	non degenerate
0.4014760973	large dataset
0.4014708627	server side
0.4014338276	three dimensional
0.4013837216	long standing problem
0.4013237044	approach builds
0.4012767957	statistical setting
0.4012104202	theoretical and experimental
0.4012043405	\ | _
0.4011748607	change of measure
0.4011284464	critical tasks
0.4010903404	graph learning tasks
0.4010896071	stability and convergence
0.4010896071	points of view
0.4010894682	called adversarial
0.4010711183	convex objective function
0.4010469819	classification schemes
0.4010098596	popular and effective
0.4010069868	temporal prediction
0.4009462399	key theoretical
0.4009438898	efficient federated learning
0.4009411098	\ varepsilon ^ 2
0.4008767810	generalized fisher
0.4008693892	existing black box
0.4008666578	metric learning problem
0.4008601078	sample limit
0.4008396071	method of generating
0.4007712310	architectures and datasets
0.4007664088	highly susceptible
0.4007435125	based active
0.4007325188	local loss
0.4007204539	encountered in practice
0.4006991349	theoretical and empirical results
0.4006823087	temperature data
0.4006785434	parameters from data
0.4006413063	spectral information
0.4005728618	results support
0.4005680156	multi dimensional data
0.4005483094	popular topic
0.4005202469	interaction based
0.4005042471	non zero entries
0.4004277649	direct training
0.4003542225	time delay
0.4003511662	search problems
0.4003358039	n ^ 2
0.4003131723	semi stochastic
0.4003101836	machine learning classifier
0.4003085223	factorization techniques
0.4002511770	deep learning based methods
0.4002228164	shedding light on
0.4002114367	become increasingly popular
0.4002104202	empirical and theoretical
0.4001853116	meta learning for few shot
0.4001797760	graph model
0.4001517952	sparse polynomial
0.4001454659	^ 2
0.4000237042	simple features
0.3999998918	^ *
0.3999996471	free setting
0.3999814014	adversarial attacks against
0.3999658549	data item
0.3999645820	large scale learning
0.3999203074	off diagonal
0.3999174983	convolutional gaussian processes
0.3999090430	likelihood objective
0.3998930394	data uncertainty
0.3998560158	sparse neural network
0.3998505499	non negativity constraints
0.3998477451	iterative learning
0.3998303724	scalable and efficient
0.3997533079	generalization to unseen
0.3997353615	validation and test
0.3997199353	training methodology
0.3996519618	positive and false
0.3996166120	experimental results obtained
0.3996068127	\ le
0.3995999971	one hidden layer neural networks
0.3995755816	bayesian recurrent neural
0.3995067506	\ vec
0.3995062738	accuracy and stability
0.3994756459	selected feature
0.3994508938	model based optimization
0.3994437605	accurate detection
0.3994434350	model demonstrates
0.3994317321	sequence to sequence model
0.3994274772	the lottery ticket hypothesis
0.3994268293	field data
0.3994219409	accompanied by
0.3994077837	contrastive representation
0.3994036204	neural model
0.3993931929	design and analyze
0.3993931127	compact network
0.3993788607	latent information
0.3993758247	data fidelity
0.3993305125	fast and efficient
0.3992678727	$ uoi_
0.3992406304	large scale online
0.3991906847	markov chain monte carlo algorithm
0.3991888637	provide conditions
0.3991615685	a primer
0.3991425723	efficient gradient based
0.3991354888	re ranking
0.3991090607	parallel data
0.3990952100	effective and scalable
0.3990872322	labeling data
0.3990355816	series prediction
0.3990329640	feature dimension
0.3990207192	received increasing
0.3989852397	uncertainty analysis
0.3989456297	optimization dynamics
0.3989426293	back end
0.3989370124	gradient based optimization methods
0.3989322567	readily available
0.3988825375	real data experiments
0.3988480830	allocation model
0.3988084006	attribute data
0.3987901980	left to right
0.3987488814	original training set
0.3987089764	noisy tensor
0.3986429668	multiple data
0.3986134166	simulations and experiments
0.3986125812	goes to infinity
0.3985683675	proposed model learns
0.3985424981	screening property
0.3984752582	algorithmic results
0.3984542411	better behaved
0.3984392062	knowledge state
0.3984003416	dynamic features
0.3983187722	experimental results indicate
0.3982120208	scale to larger
0.3982119395	\ deg
0.3981532950	proposed method shows
0.3980926262	production data
0.3980409273	deep echo state
0.3980395417	adversarial machine
0.3980299660	ensemble algorithms
0.3979327549	combining deep
0.3979213065	scaling to large
0.3978805774	inferring latent
0.3978745625	efficiency and performance
0.3977775635	target error
0.3977683974	rely solely on
0.3977376758	end to end manner
0.3977295353	a comprehensive survey
0.3977167774	thoroughly investigated
0.3976827481	coping with
0.3976079100	provide numerical experiments
0.3976007326	consuming and expensive
0.3975845202	experts model
0.3975815741	potentially high
0.3975500807	top k
0.3974976666	current deep learning
0.3974962917	nonlinear neural networks
0.3974452939	varying degrees
0.3974353914	loss in performance
0.3973728788	sparse activation
0.3973559742	smaller memory
0.3972937536	large and complex
0.3972822810	generation method
0.3972549650	number of free parameters
0.3972007838	modern high dimensional
0.3972003694	empirical bayesian
0.3971995447	constraint based causal
0.3971719566	complex human
0.3971657522	| \ nabla
0.3971629416	adversarial privacy
0.3971606083	probabilistic topic models
0.3971223919	model free deep
0.3970962472	aware model
0.3970743693	exact samples
0.3970599063	fast training
0.3970437536	efficient and robust
0.3970040160	specific applications
0.3969999073	problem size
0.3969973018	ml tasks
0.3969866287	borrowed from
0.3969752492	detect adversarial examples
0.3969507182	performance and robustness
0.3969265262	train and evaluate
0.3968930454	message passing based
0.3968633634	upper bounded by
0.3968613619	experiments on real data
0.3968307627	near separable
0.3968279110	non smooth optimization
0.3967745208	probabilistic latent
0.3966862282	efficient and accurate
0.3966843157	regularized logistic
0.3966743536	efficient active
0.3966729404	scalable and robust
0.3966233999	reinforcement learning setting
0.3966045644	training and evaluation
0.3964831076	deep multimodal
0.3963997118	process noise
0.3963835317	real and synthetic
0.3963472330	joint state
0.3962993249	unknown underlying
0.3962940431	important factor
0.3962579863	unsupervised learning methods
0.3962474428	adaptive online
0.3962472633	degree nodes
0.3962390328	filtering problem
0.3962305499	data bias
0.3962228300	\ theta
0.3961695788	underlying causal
0.3960300072	time series classification
0.3960252058	scale to large datasets
0.3960093505	limited labeled
0.3959104255	seq data
0.3958887931	significant practical
0.3958751925	language models
0.3958615457	synthetic data and real
0.3957317125	normalization method
0.3957008722	class based
0.3956960432	single trajectory
0.3956352298	two dimensional
0.3956338997	discrete bayesian
0.3956295298	reward model
0.3956165917	learning performance
0.3956142360	common solution
0.3955695921	demonstrate significant improvements
0.3955623996	large amounts of data
0.3955314988	examples per class
0.3954900876	probability metric
0.3954428128	local rademacher
0.3954367590	training machine learning models
0.3954192112	fitted model
0.3954084859	robust and accurate
0.3953695251	\ pi_
0.3953305318	high dimensional linear models
0.3953183326	results establish
0.3952371016	high dimensional time series data
0.3952209710	gaining increasing
0.3952153262	classical setting
0.3952024951	meta learning techniques
0.3951881108	network performance
0.3951803243	speed of convergence
0.3951573028	neural sequence models
0.3951504523	symmetric nonnegative
0.3951400049	deep discriminative
0.3950986878	online active
0.3950897598	massive amounts of data
0.3950212310	standard and robust
0.3950128846	tens of millions
0.3950073939	single network
0.3949925107	stems from
0.3949653824	estimating high dimensional
0.3949366491	substantial improvement over
0.3949279153	no regret
0.3948913029	subset selection problem
0.3948883652	structured prediction problems
0.3948501208	word error
0.3948396071	recurrent and convolutional
0.3948342631	constrained quadratic
0.3947078959	modeling and prediction
0.3946940890	stationary stochastic
0.3946862282	propose and study
0.3946480583	c + +
0.3946045644	classification and clustering
0.3945943954	generalized likelihood
0.3944706623	p values
0.3944702100	approach of learning
0.3944492239	worse than
0.3944481159	algorithm development
0.3944241967	over parameterization
0.3944232516	github.com google
0.3944013066	high dimensional continuous
0.3943880988	provide finite sample
0.3943685984	large data set
0.3943337503	interpretability and predictive
0.3942818044	\ infty
0.3942562738	algorithm and analysis
0.3942488548	adversarial variational
0.3942197599	recently popular
0.3942062565	least angle
0.3941679244	subspace method
0.3940639198	privacy preserving machine
0.3940488569	area of research
0.3940339347	linear time invariant
0.3940329958	without knowing
0.3940182646	\ psi
0.3940066156	\ epsilon ^ 2
0.3939231068	diverse set
0.3938608245	information networks
0.3937653532	\ bar
0.3937528389	statistical problem
0.3937376270	automated design
0.3936795402	optimal subset
0.3936621399	mnist and cifar10 datasets
0.3935235399	a deep neural network
0.3935062738	effective and robust
0.3934579320	key research
0.3934451520	^ \ prime
0.3934211325	large scale classification
0.3934011592	insight into
0.3932256282	based controllers
0.3931860482	adversarial data
0.3931282958	bayesian graphical
0.3931123647	binary optimization
0.3931045644	robustness and generalization
0.3930368125	batch version
0.3930248117	free approach
0.3929410554	broad range of applications
0.3929327252	generalizes well
0.3929233887	biased towards
0.3928684533	approximation and estimation
0.3928645221	flow based model
0.3928497900	non episodic
0.3928210675	probabilistic learning
0.3927988992	n ^ 3
0.3927814903	high fidelity data
0.3927498783	learning module
0.3927280546	of thumb
0.3926990793	constant fraction
0.3926705259	top eigenvectors
0.3926686227	efficient representations
0.3926666604	obtained results
0.3926556264	selection and hyperparameter
0.3926523298	there exists
0.3926075642	algorithm significantly outperforms
0.3925742803	training and generalization
0.3925722469	level features
0.3925569881	trained neural
0.3924611857	boosting machines
0.3924485237	original space
0.3924198040	similar result
0.3923907141	choice of hyperparameters
0.3923512040	network optimization
0.3923372286	multi way data
0.3923338651	a case study
0.3923295704	poor data
0.3923193315	vast majority of
0.3922700230	challenges and future
0.3922656217	maximum mean
0.3922258879	sensing applications
0.3921868682	involving multiple
0.3921105503	cloud data
0.3920156812	bandits problem
0.3919918193	accurate and robust
0.3919378486	model coefficients
0.3919173382	exact and efficient
0.3919131253	denoising based
0.3918313211	theoretical and numerical
0.3917995649	interpolate between
0.3917582813	resorts to
0.3917563141	prediction and node classification
0.3917482478	$ means clustering
0.3917129381	matching algorithm
0.3916843532	time series prediction
0.3916084956	space dimensions
0.3915514889	dynamic data
0.3914942864	flow data
0.3913697652	almost everywhere
0.3913446959	gradient hamiltonian monte carlo
0.3913340308	performing experiments
0.3913127717	requires expert
0.3913012998	out of vocabulary
0.3912837636	\ geq 0
0.3912734473	orders of magnitude larger
0.3912465354	flexible and efficient
0.3911986418	deciding whether
0.3911742537	efficient sparse
0.3911408148	anomaly detection tasks
0.3910957993	individual user
0.3910900039	benchmark and real world datasets
0.3910733652	important research topic
0.3910379732	datasets suggest
0.3910276421	definition of fairness
0.3910273134	greater than
0.3909826389	linear system identification
0.3909706618	time frequency
0.3909417308	model combines
0.3909398914	v fold
0.3909248145	self normalized
0.3908336643	techniques require
0.3908101953	accuracy in predicting
0.3908101953	segmentation and classification
0.3907914864	local outlier
0.3907783644	based features
0.3907742501	approach shows
0.3907526421	small error
0.3907513450	non strongly convex problems
0.3907467598	true gradient
0.3907315954	learned tasks
0.3907254721	taken into account
0.3906012286	independent latent
0.3905655736	based exploration
0.3905409310	sparse logistic
0.3905123491	generate samples
0.3904820577	modelling framework
0.3904507605	second order methods
0.3904376961	minimization algorithm
0.3904183221	scalable training
0.3904132665	10 db
0.3902924706	transfer learning based
0.3902217848	classification and segmentation
0.3902188841	_ i = 1 ^ n
0.3902035431	efficiency and efficacy
0.3901966560	deep artificial
0.3900978394	mining algorithms
0.3900484662	random points
0.3899972766	data level
0.3899329292	medical time series
0.3899185523	deep structures
0.3898396071	theoretical and computational
0.3897675273	forest algorithm
0.3897539365	non uniqueness
0.3897507791	| z
0.3897085415	non negative factorization
0.3897074267	decentralized data
0.3897028584	\ mathtt
0.3897026638	model sparsity
0.3896882689	constrained edge
0.3896719708	human decision
0.3896561601	simple functions
0.3896540588	parameter setting
0.3896322230	post processing methods
0.3896070524	kernel based method
0.3895652398	multimodal sentiment
0.3895095799	additional samples
0.3895089188	requires computing
0.3895033039	conducted to verify
0.3894870604	based data augmentation
0.3894736288	n ^ 1
0.3894297763	convex approaches
0.3894232072	accurate estimation
0.3893485484	without hurting
0.3892386708	approach exhibits
0.3892145356	reliable data
0.3891867450	high dimensional parameter
0.3891667393	one shot learning
0.3891129115	just in time
0.3890879594	energy physics
0.3890740146	enables robust
0.3890563116	large scale network
0.3890415472	body systems
0.3890389591	\ cite
0.3888816007	\ sim
0.3888787925	convergence bound
0.3888645581	based denoising
0.3888113050	linear support
0.3888044255	mixed linear
0.3888030447	distribution distance
0.3887837041	extensive empirical study
0.3887748175	task at hand
0.3887497892	poisson matrix
0.3887325758	popular paradigm
0.3886791888	bayesian convolutional neural
0.3886765262	theory and applications
0.3886511245	\ geq
0.3886310726	shown superior
0.3886138569	instance learning
0.3885246739	expected total
0.3885135893	well established
0.3885121750	sparse linear combinations
0.3884626518	against adversarial examples
0.3883448961	speed and performance
0.3882647163	unsupervised word
0.3882523422	governed by
0.3882060072	optimization of expensive
0.3881214158	present preliminary
0.3881170183	large quantities
0.3880351069	sequential bayesian
0.3880139610	multiple latent
0.3879378041	matching methods
0.3879368713	physics experiments
0.3878782972	in distribution data
0.3878659746	end to end automatic speech
0.3878615281	performance and resource
0.3878590347	lower communication
0.3878396071	statistics and machine
0.3878281625	inducing priors
0.3878043188	requires access
0.3876134166	robust and fast
0.3875532653	sparse noise
0.3875316079	process based
0.3874962750	neural network inference
0.3874671941	similar convergence
0.3874626257	group information
0.3874465046	multiple continuous
0.3874459137	third order
0.3874450422	reconstruction method
0.3874242370	latent group
0.3873888751	existing distributed
0.3873750341	exponential kernel
0.3873334051	input weights
0.3873306669	hard problem
0.3872932397	standard classifiers
0.3872915754	observed features
0.3872149560	x_ i
0.3872142016	test time
0.3871872298	proposed defense
0.3871735879	called \ emph
0.3871063772	convolutional neural network architecture
0.3870991764	adaptation method
0.3870855045	parameterized model
0.3870815753	requires manual
0.3870786081	gaussian posterior
0.3870660995	high dimensional random
0.3870451153	based measures
0.3870295665	spectral based
0.3870194816	efficiently learned
0.3870136694	high level feature
0.3869864587	top n
0.3869509353	real human
0.3868715204	approach compares
0.3868536265	reconstruction algorithms
0.3868531533	language text
0.3868471675	conclusions about
0.3868396071	size and complexity
0.3868177159	sgd training
0.3868064936	weights update
0.3868025798	time series data
0.3867316962	a sparse linear combination
0.3866795068	co expression
0.3866681231	1 \ gamma
0.3866435287	sparse and noisy
0.3866353572	without degrading
0.3866335898	lasso method
0.3865922162	30 day
0.3865649220	learning and prediction
0.3865631750	time to event
0.3865548246	angle regression
0.3865150205	constrained maximum
0.3864804139	supervised learning approaches
0.3864517425	generic framework
0.3864230533	called hierarchical
0.3863555050	modern neural network
0.3863133259	binomial processes
0.3862929239	almost exclusively
0.3862261603	weaker assumptions than
0.3862156403	scale to large
0.3862031358	learning and control
0.3861931588	take place
0.3861677761	commonly used
0.3861595400	related datasets
0.3860771439	mechanism called
0.3860611561	statistical method
0.3860350683	data sets demonstrate
0.3859876379	robust image
0.3859236960	molecular data
0.3859204342	classification of images
0.3858872428	fast fourier
0.3858412762	correcting output
0.3858256330	excel at
0.3858227935	$ l_ 2,1
0.3858159858	last decade
0.3857955517	best scored
0.3857744396	\ epsilon ^ 1
0.3856765262	theory and experiments
0.3854760489	linear network
0.3854746591	bounded away from zero
0.3854698734	simple graphs
0.3854392486	iteratively reweighted least
0.3854171015	arm bandit
0.3853946230	powerful technique
0.3853920925	mixture of two gaussians
0.3853740492	gamma model
0.3853628935	subset of vertices
0.3853587766	deep learning network
0.3853508403	adversarial reinforcement learning
0.3853210461	time resolved
0.3853176890	graph network
0.3852948568	applications in signal processing
0.3852745178	still poorly understood
0.3852324812	compares favorably with
0.3852099974	integer optimization
0.3851782294	learning and generalization
0.3851651755	bayesian meta
0.3851368767	convergence and generalization
0.3851274833	underlying latent
0.3851252894	standard regression
0.3850594357	soft actor
0.3849316817	latent common
0.3849258920	deep learned
0.3848764789	short time series
0.3847590282	based recommendation
0.3847461606	number of support vectors
0.3847344552	provide theoretical results
0.3846818044	\ varepsilon
0.3846565509	stochastic problems
0.3846526403	training classifiers
0.3846269118	selection based
0.3846131796	e step
0.3846046663	computational approaches
0.3845855454	bounds match
0.3845428467	partial domain
0.3845393405	datasets and demonstrate
0.3844458433	tends to infinity
0.3843977764	discrete latent variable
0.3843845880	structural learning
0.3842678909	accurate identification
0.3842034906	extensive experimental study
0.3841225463	ubiquitous in real world
0.3841199497	performance and interpretability
0.3840278285	widely used
0.3840275708	proof of principle
0.3839223481	autoencoder model
0.3839127957	layer wise training
0.3838627216	based fault
0.3836920570	interval bound
0.3836785849	modern neural
0.3836162870	mean estimation
0.3836119027	model performances
0.3835149811	exact form
0.3833731937	multiple clustering
0.3831435287	inference and prediction
0.3830896921	search and recommendation
0.3830626946	scalable learning
0.3830379736	artificial and real
0.3829958537	exact algorithm
0.3829914612	significant improvement over
0.3829330979	converge faster than
0.3829068646	approach reduces
0.3828871362	compares favorably to
0.3828671592	parameter free algorithm
0.3828517811	gan generated
0.3828173855	practical methods
0.3827603973	multi task reinforcement
0.3827477671	mean discrepancy
0.3827404657	model from data
0.3827260517	look like
0.3827218044	\ delta
0.3826080186	a systematic comparison
0.3825794532	learning component
0.3825696380	edge learning
0.3825590732	original variables
0.3825519817	descent ~
0.3824789438	s & p
0.3824589180	dimensional categorical
0.3824145542	power spectral
0.3823807028	adept at
0.3823332457	existing deep
0.3823319178	variational quantum
0.3823173597	optimal algorithms
0.3823138081	data transfer
0.3822885980	method outperformed
0.3821949031	inducing penalties
0.3821782294	accuracy and performance
0.3821304984	propose and investigate
0.3821191471	arrive at
0.3820226148	model search
0.3819411466	sparse learning problems
0.3817435286	personalized learning
0.3817262474	per layer
0.3816899576	supervised regression
0.3816377109	online linear
0.3816063250	level structure
0.3815456404	data records
0.3815142886	linear and non linear
0.3814859830	based modeling
0.3814744025	probabilistic models
0.3814522005	step towards understanding
0.3814207036	\ ge
0.3814191861	sparse subset
0.3813720901	real world time series
0.3813506607	scaling method
0.3813319521	optimal algorithm
0.3813175508	perform clustering
0.3813151920	many body systems
0.3812367292	\ rm
0.3811793030	fully connected deep
0.3811414952	log linear models
0.3811159597	\ leq
0.3810246784	network estimation
0.3810081344	representative set
0.3809984937	far field
0.3809832527	x_i \ _ i
0.3809825453	neural memory
0.3809728171	recursive feature
0.3809025043	fairness in machine learning
0.3808956327	applying reinforcement learning
0.3808615281	performance and speed
0.3807929977	general regression
0.3807498711	obtain bounds
0.3807365220	target model
0.3807013234	powerful enough
0.3806504511	classifier model
0.3805992746	generalization accuracy
0.3805296243	conduct extensive experiments on
0.3805262404	imagenet c
0.3804236111	matrix representation
0.3803896152	varying number
0.3803347354	real and simulated datasets
0.3802955862	ranking methods
0.3802083952	arise frequently
0.3802056944	aims to minimize
0.3801963459	model space
0.3801245625	performance and accuracy
0.3800941934	control algorithms
0.3800294039	based clustering algorithms
0.3800203985	next generation
0.3800060375	theoretic bounds
0.3800028477	common approach
0.3799755927	large scale real world
0.3798843578	samples drawn
0.3798129378	improve classification
0.3797085805	complexity required
0.3796934466	node classification task
0.3796848125	not necessarily
0.3796741880	inference technique
0.3796578608	combine multiple
0.3796113890	width limit
0.3795371353	dimensional embedding
0.3795336818	improve classification performance
0.3794775844	random graph models
0.3794719034	statistical aspects
0.3794643084	classification framework
0.3794424577	unable to capture
0.3794288216	relations among
0.3794125612	errors in variables
0.3793956701	taken into consideration
0.3793793307	model structures
0.3793770947	capturing complex
0.3793461075	support norm
0.3792738839	label learning
0.3792710859	\ exp
0.3792680574	process prior
0.3792674839	start problem
0.3792652278	^ \ frac
0.3792489115	general nonlinear
0.3792416840	online learning problem
0.3792343753	specific settings
0.3792091102	fitting algorithm
0.3792033533	latent function
0.3791720770	method significantly improves
0.3791602964	likelihood optimization
0.3791308388	low to high
0.3790750949	linear models
0.3790232554	architecture and training
0.3788977117	restricted strong
0.3788702854	efficient and practical
0.3788446390	analysis and machine learning
0.3788438253	nonparametric model
0.3788016668	attractive alternative
0.3787959075	variational information
0.3787897092	natural data
0.3787872760	adaptive sparse
0.3787256045	value function
0.3787213084	large scale systems
0.3786993823	real and simulated
0.3786862065	geometric mean
0.3786675061	0 1 loss
0.3785179422	squares solution
0.3784927479	mathbb r ^ d \ rightarrow
0.3784097981	unsupervised learning tasks
0.3784066982	time series analysis
0.3783888984	fast gradient
0.3783474497	robust online
0.3783424650	present evidence
0.3783347536	information directed
0.3783223203	conditional information
0.3782868117	characterised by
0.3781811293	output dimensions
0.3781706954	underlying cluster
0.3781648125	devices with limited
0.3781317453	prior knowledge about
0.3781105041	detection process
0.3780989520	robustness to outliers
0.3780764658	ability to generalize
0.3780446301	inference from observational data
0.3780065210	optimal worst case
0.3779861459	partitioning algorithms
0.3779616617	segmentation problem
0.3779061718	long range temporal
0.3778853385	index based
0.3778821397	learning principle
0.3778804485	\ sigma_
0.3778758941	parametrized regime
0.3778284888	self training
0.3778129597	quantum algorithm
0.3778066220	second order information
0.3777706686	establish asymptotic
0.3777437110	important and challenging
0.3776986309	segmentation model
0.3776900000	level predictions
0.3776318827	membership model
0.3775830055	2600 games
0.3775626923	coordinate system
0.3775603329	general results
0.3775179121	superior performance compared to
0.3775083061	model inference
0.3775062953	developed recently
0.3774864680	require multiple
0.3774840397	results with experiments
0.3774705154	original paper
0.3774580023	far apart
0.3774075319	^ 1
0.3773922386	algorithm computes
0.3773521014	in situ
0.3772328561	too much
0.3771859773	kernel based learning
0.3771594428	\ ell_0
0.3771396437	computationally efficient algorithms
0.3771378082	inference mechanism
0.3771082079	easier to implement
0.3770163764	effects from observational
0.3769552215	stochastic average
0.3769456454	missing value
0.3769110296	trained cnn
0.3768352178	bayesian multi
0.3767974170	comprehensive empirical
0.3767945789	general stochastic
0.3767752313	typical machine learning
0.3767699995	well studied
0.3767612255	existing defense
0.3767371389	until now
0.3767004538	joint representation
0.3766847597	feature graph
0.3766782294	structure and parameters
0.3766462182	representation learning framework
0.3766216990	pool of unlabeled
0.3766041189	classification benchmark
0.3765825035	shown to outperform
0.3765102547	order of magnitude faster
0.3765096648	sources of information
0.3765089958	experiments on synthetic and real world
0.3764733743	transfer based
0.3764715735	gaussian component
0.3764556143	based estimator
0.3764448707	10 ^ 4
0.3763944063	existing lower bounds
0.3761643110	efficient variational
0.3760789339	early signs of
0.3760751862	t ^ 1
0.3760549546	hierarchical information
0.3759365785	efficient and provably
0.3759001586	improve upon
0.3758883771	reduced gradient
0.3758225537	over parameterized
0.3757946057	general loss
0.3757684885	noisy function
0.3757103705	large memory
0.3757090012	number of samples
0.3757023238	constrained policy
0.3756782294	estimation and prediction
0.3756600012	multi view model
0.3756534097	prediction tools
0.3755946390	neural networks and deep
0.3754620451	bias problem
0.3754315869	train deep neural networks
0.3753559470	minimum mean square
0.3753287316	low communication
0.3752366208	highly vulnerable
0.3751704393	linear kernels
0.3751222614	learning based approaches
0.3750617415	transfer learning methods
0.3750518380	effectiveness and superiority
0.3749981475	constrained multi
0.3749952697	kernel learning methods
0.3749683199	order optimization
0.3749363214	doing so
0.3748629961	rank one
0.3747965374	sought after
0.3747652335	adversarial deep learning
0.3747324565	learning environments
0.3747274173	empirical networks
0.3747098034	1d and 2d
0.3746967226	\ varepsilon ^ 4
0.3746651512	connections between
0.3746422453	\ kappa_ \ mathbf
0.3746068650	\ cal
0.3745873823	parameter based
0.3745022045	image distributions
0.3744933638	recently applied
0.3743735269	point prediction
0.3743481389	learning on large
0.3743209146	completion problems
0.3742307829	performance criteria
0.3741479509	kernel learning framework
0.3741460969	noisy case
0.3741177964	serious concerns
0.3741100647	multi label image
0.3740934857	a machine learning approach
0.3740752220	difficult to collect
0.3740729227	classical algorithm
0.3740538077	data driven model
0.3740488287	linear correlations
0.3740336209	deep auto
0.3739962842	robust model
0.3739778927	extraction task
0.3739571040	error loss
0.3739307296	achieve good performance
0.3738969886	discrete markov
0.3738838281	adversarial multi armed
0.3738601201	real world classification
0.3738527363	testing sets
0.3738423750	standard kernel
0.3737136859	partition model
0.3736563143	concerns about
0.3736196972	learned function
0.3736074287	notion of fairness
0.3735725777	tracking problem
0.3734506388	training iteration
0.3734222072	rl setting
0.3734161835	practical tasks
0.3734151852	performance increase
0.3734092971	online gradient
0.3734067929	high quality results
0.3734023919	graph ae
0.3733990050	regarded as
0.3733672301	combinatorial action
0.3733348702	path following
0.3733067009	stochastic alternating
0.3732517060	trade off between
0.3731972750	output function
0.3731374398	achieve high performance
0.3731216721	neural function
0.3731114622	semantic feature
0.3730905708	sparse input
0.3730662941	insights about
0.3729530551	bayesian non parametric
0.3728725865	\ eps
0.3728715225	self tuned
0.3728184245	approximate model
0.3727777060	similar datasets
0.3726805041	| _f
0.3726416007	\ mathrm
0.3726312953	scheme called
0.3726181335	generative training
0.3725918984	detection of anomalous
0.3725886341	over parametrized
0.3725880106	unsupervised learning problems
0.3725815534	paper applies
0.3725766777	\ rightarrow 0
0.3725674626	decomposition approach
0.3725383205	gradient based method
0.3724816061	theoretical bound
0.3724520643	acoustic models
0.3723521729	a deep learning approach
0.3722849255	online learning approach
0.3722555790	scalable approximate
0.3722282017	linear setting
0.3722149687	provide theoretical analysis
0.3721931693	provide numerical
0.3721752745	significantly improved performance
0.3720589239	publicly available data sets
0.3720068422	based architectures
0.3718913732	one bit
0.3718793813	x_ n
0.3718048998	proposed algorithm outperforms
0.3718026194	underlying process
0.3717787168	layer relu
0.3717742419	correspondence between
0.3717561018	systematic comparison
0.3717502341	own right
0.3717437110	generalization and robustness
0.3717288773	limited samples
0.3717161057	output map
0.3716653191	poisson point
0.3716492657	\ phi_
0.3716441986	scalable to large
0.3716416007	\ boldsymbol
0.3716163290	recovery methods
0.3716159053	mnist and fashion
0.3715955631	series representation
0.3715708545	free algorithms
0.3715256772	optimal regret bound
0.3713564736	trained network
0.3713347070	life datasets
0.3713240247	sources of variation
0.3712792558	deep ordinal
0.3711964570	powerful generative
0.3711888942	same cluster
0.3711589368	fundamental task
0.3711545726	underlying dynamics
0.3711212544	naturally leads
0.3710911347	extensive computational
0.3710729444	develop efficient algorithms
0.3710418100	broad class
0.3709901092	thresholding based
0.3709749863	increase robustness
0.3709737517	network level
0.3709140955	classification quality
0.3709012828	efficient nonparametric
0.3708774482	heavily depends on
0.3708499863	free exploration
0.3708147154	interpretable feature
0.3707893215	translated into
0.3707459014	free manner
0.3707366391	frequently used
0.3707294762	capitalize on
0.3707092523	real data applications
0.3706606678	hampered by
0.3706424204	target vector
0.3706145192	complemented by
0.3705917310	one shot semi supervised
0.3705363205	\ beta
0.3705222008	influenced by
0.3705203855	leading methods
0.3705112365	graph variational
0.3704790489	\ eta
0.3704623561	called meta
0.3704406850	evaluated and compared
0.3704190644	true state
0.3703974389	bayesian algorithm
0.3703653922	handle missing
0.3703475655	proposed strategy
0.3703454204	algorithm matches
0.3703449494	efficient gibbs sampling
0.3702792260	correlations among
0.3702645116	analysis tasks
0.3702512023	natural looking
0.3701963617	class classification problem
0.3701865785	systems from data
0.3701337904	large and sparse
0.3701173413	decoder architecture
0.3700953990	applications of deep
0.3700910726	word embedding models
0.3700538617	^ 6
0.3700218159	deep supervised
0.3700134456	model trees
0.3699785810	efficiency and robustness
0.3699772762	methods achieve
0.3699652708	significantly faster than
0.3699059727	local manifold
0.3698082512	time instants
0.3698022394	resulting optimization problem
0.3697766934	specific language
0.3697530509	deep learning solution
0.3697179851	exactly recovers
0.3696983904	theoretical insights into
0.3696221146	black box machine learning models
0.3695780917	additive noise models
0.3695261989	largest mean
0.3693878551	real and generated
0.3693799189	optimization variables
0.3693664505	establish sufficient
0.3693043403	per epoch
0.3692273851	unified probabilistic
0.3691590264	an information theoretic approach
0.3691429424	local graph
0.3691211035	update algorithm
0.3690765193	spanned by
0.3690683569	proper choice
0.3690390784	standard dataset
0.3690224060	large scale real
0.3690190906	a brief review
0.3690152765	dimensional analysis
0.3688915234	efficient gibbs
0.3688397873	neural network learning
0.3687384898	training on large
0.3687212668	kernel network
0.3687050623	fail to detect
0.3686838939	input set
0.3686709495	multiple types
0.3686489000	simulations and real data
0.3686331292	major limitation
0.3685925331	risk estimate
0.3685382048	sparse generalized
0.3685256304	sampling policy
0.3685164816	processing methods
0.3684638679	simple spectral
0.3684609309	similar structure
0.3683813980	based policies
0.3683761091	feature allocation models
0.3683201755	global objective
0.3682226131	fail to generalize
0.3682207280	efficient deep learning
0.3681984275	study suggests
0.3681916810	interactive machine
0.3681479134	applied machine learning
0.3681191070	\ lambda_
0.3680952702	provide empirical results
0.3680517240	established techniques
0.3679871323	method of multipliers
0.3679779684	stochastic partial
0.3679650492	training signal
0.3679320018	model significantly outperforms
0.3679146539	recurrent model
0.3679047298	simulated data and real
0.3678979656	attempt to address
0.3678524017	protect against
0.3677674895	short term memory networks
0.3677397090	grouped together
0.3677386520	networks tend
0.3677305750	$ l_ \ infty
0.3677277425	bayesian method
0.3677271968	3d u net
0.3676907535	suitable conditions
0.3676780095	\ delta_i
0.3676669286	significantly improves performance
0.3676468558	effectiveness and robustness
0.3676410938	computing environment
0.3676069062	randomized methods
0.3675911817	develop fast
0.3675816770	dependencies among
0.3675407060	adding small
0.3675363321	observe significant
0.3674953638	learning kernels
0.3674808495	small data set
0.3674319664	sparse local
0.3673930399	expensive to acquire
0.3673874946	while retaining
0.3672612255	large corpus
0.3672076208	high quality samples
0.3671288942	first person
0.3670850303	deep tensor
0.3670428136	$ l_0
0.3669880805	experimental datasets
0.3669352260	combines ideas
0.3669203180	completion algorithm
0.3669030119	taken together
0.3668922172	wide array
0.3668659885	contrary to previous
0.3667910856	under partial observability
0.3667552261	network trained
0.3667510880	neural network based approach
0.3667174609	double deep
0.3666411986	\ left
0.3666355486	efficient mcmc
0.3666350662	m estimators
0.3666248379	complex processes
0.3665466491	task distributions
0.3665386103	multiple target
0.3665258521	baselines including
0.3665106795	\ alpha
0.3665068854	dependent plasticity
0.3663818333	transfer learning method
0.3663691410	feed forward deep
0.3663466011	neural language
0.3663445826	vector autoregressive models
0.3663311224	\ bm
0.3663204043	challenging continuous control
0.3663162235	noise setting
0.3662800276	algorithmic decision
0.3662628823	learn effective
0.3662195027	partitioned into
0.3661865785	networks from data
0.3661282285	t ^ 2
0.3661070497	generate predictions
0.3660416240	semi supervised few shot
0.3660024363	day to day
0.3659841734	descent scheme
0.3659713562	careful choice of
0.3659636330	actual performance
0.3659470994	right hand
0.3659456729	network output
0.3659140284	representation learning algorithms
0.3658887361	transfer reinforcement
0.3658356248	\ ell_2
0.3658102352	user based
0.3657938587	three fold
0.3657876346	kernel mean
0.3657828302	advances in deep learning
0.3657583356	\ tilde
0.3657398627	distributed sparse
0.3657001463	computational problems
0.3656869143	introduce and study
0.3656711079	significant improvements over
0.3656676225	test images
0.3656453777	sum_ i = 1 ^ n
0.3656419419	modern day
0.3656104848	shed new light
0.3655768038	retrieval problem
0.3655631867	introduce and analyze
0.3655579518	standard architectures
0.3655440453	computational and sample
0.3655205040	1 \ varepsilon
0.3654818044	\ mathbf
0.3654667879	accuracy and computational
0.3654608456	sub sampling
0.3654504822	planning based
0.3654492653	lower computational
0.3654382985	regression performance
0.3654299511	related time series
0.3654082566	generative image
0.3653870140	learning pipelines
0.3653203431	an open question
0.3652836025	proposed method improves
0.3652270892	faster convergence rate than
0.3652146535	world health
0.3651832063	experiments showing
0.3651594141	robust to label noise
0.3651119770	pressing need
0.3650818097	graph algorithms
0.3650462431	information games
0.3650285391	out of sample extension
0.3650273013	\ widetilde
0.3650114033	forecasting method
0.3649953067	structural equation
0.3649850466	limited hardware
0.3649341403	regression network
0.3649318703	structure prediction
0.3649315553	critic learning
0.3649244932	community detection in networks
0.3647266262	standard monte carlo
0.3647248893	neural network approaches
0.3647191414	baseline approach
0.3646379889	method generalizes
0.3646195180	relationships among
0.3645469593	noise matrix
0.3644876473	achieve high quality
0.3644871072	\ emph
0.3644830115	classifier learning
0.3644642746	improved uncertainty
0.3644360452	algorithm based
0.3644160705	draw samples from
0.3644035107	too restrictive
0.3643936916	mnist classification
0.3643898951	significant cost
0.3643192758	while maintaining
0.3643125670	deep reinforcement learning algorithm
0.3642903973	based rl algorithms
0.3642577044	\ theta_t
0.3641362748	^ 2d
0.3641228297	vanilla gradient
0.3640582313	activity data
0.3640371729	audio signal
0.3640203422	number of classes
0.3640133618	complex scenarios
0.3638630975	multi agent deep
0.3638585323	empirical estimates
0.3638510665	brain computer
0.3638415045	continuous representations
0.3638414948	almost always
0.3638346512	synergy between
0.3638269811	incorporate prior
0.3638022869	efficient algorithm for computing
0.3637992329	batch gradient
0.3637906568	comprehensive set of experiments
0.3637770436	non isomorphic
0.3637704716	large scale neural networks
0.3637673234	attention based deep
0.3637627098	dimensional domains
0.3637605841	central task
0.3637173922	finite time regret
0.3636119092	go beyond
0.3635785431	individual and group
0.3635340947	re weighted
0.3635330392	data driven learning
0.3634796357	no spurious local
0.3634566824	every iteration
0.3634298498	relative performance
0.3633884273	over parameterized neural networks
0.3633600504	bounds depend
0.3633503085	supervised fashion
0.3633018726	limited availability
0.3632921190	representation model
0.3632786116	data recovery
0.3631952833	order interactions
0.3631721687	gaussian features
0.3631638772	learn useful representations
0.3631019284	representation learning problem
0.3630823202	retrieval problems
0.3630504847	weaker than
0.3630464745	traditional classification
0.3629595912	main novelty
0.3629582368	co design
0.3629391239	curve data
0.3629127614	generate synthetic
0.3628904490	model convergence
0.3628594360	strong adversarial
0.3628139330	magnitude larger
0.3627927962	inverse gaussian
0.3627810264	algorithm utilizes
0.3627662782	data analysis tasks
0.3627384525	network regularization
0.3627216065	standard cnn
0.3627130063	least absolute shrinkage
0.3626989837	cifar 10 dataset
0.3626980521	efficient estimators
0.3626916469	robustness against
0.3626845693	predict user
0.3626802298	accuracy trade off
0.3626493887	specific setting
0.3625700753	co adaptation
0.3625415573	art accuracies
0.3625276611	fast and robust
0.3625252133	neural representation
0.3625145714	image classification problem
0.3625020245	adversarial classification
0.3624334147	active learning approach
0.3623947793	non local
0.3623930197	image inputs
0.3623890755	existing knowledge
0.3623538330	method exploits
0.3623430995	time warping
0.3623217954	distributed stochastic gradient
0.3623116373	non linear relationships
0.3622940453	applications of machine
0.3622789984	sparse training
0.3622769116	large proportion
0.3622338839	trivial task
0.3621865785	learning in deep
0.3621709402	inference cost
0.3621601309	recurrent learning
0.3620875096	model incorporates
0.3620740514	amounts of labeled data
0.3619459887	unsupervised method
0.3619129010	approximate nearest
0.3619085304	efficient transfer
0.3619048313	non overlapping
0.3618816194	robust solution
0.3618155729	crucially depends on
0.3617751535	becomes increasingly important
0.3617321797	local gradient
0.3617065784	faster than
0.3616840144	action value
0.3616519017	calibration data
0.3615067378	complexity per iteration
0.3614873578	under reasonable assumptions
0.3614562300	limiting case
0.3614295677	optimal tradeoff
0.3614208621	unified model
0.3614146734	conduct numerical
0.3614038175	still lacking
0.3612702088	lines of code
0.3611389114	approximation property
0.3610833052	model generalization
0.3610822992	output variable
0.3610269824	number of queries
0.3610100447	standard machine learning
0.3610042466	key issue
0.3609691112	regularization functions
0.3609539080	smooth and strongly
0.3609109957	first order methods
0.3608093431	1 \ epsilon
0.3607998029	classification scheme
0.3607815671	prediction loss
0.3607724677	informed neural networks
0.3607309167	out of distribution
0.3606755314	network ensemble
0.3606549556	aim to bridge
0.3605874200	online machine learning
0.3605199118	algorithms and applications
0.3604598555	variate time series
0.3603829927	structure and function
0.3603144229	reduce variance
0.3601911790	demonstrates significant
0.3601581849	accuracy rate
0.3599966244	text features
0.3599896342	generalized version
0.3599892092	novel deep learning architecture
0.3599255792	last layer
0.3599156668	paper concludes with
0.3599071250	benchmark problem
0.3597453038	mean absolute
0.3597451087	evolving data
0.3597384353	output data
0.3597377113	derive optimal
0.3597132183	scalable for large
0.3596929134	capture local
0.3596865305	computational framework
0.3596052501	running time
0.3596034335	probabilistic generative models
0.3595224773	model's training
0.3594113920	last few years
0.3593863471	3d shape
0.3593786999	fundamental problem in machine learning
0.3593771035	to real transfer
0.3593686249	\ | _0
0.3593071775	learning hierarchical
0.3592787597	clustering objective
0.3592527818	model trained
0.3592337479	significant effect
0.3591943531	^ \ star
0.3590409039	user model
0.3590390441	images and text
0.3590155302	mnist and cifar 10 datasets
0.3590129065	heterogeneous domain
0.3590014563	additive models
0.3589697906	regularized matrix
0.3589525578	aims at
0.3588432730	unsupervised settings
0.3588263071	learning interpretable
0.3588121729	reliable uncertainty
0.3588080513	originating from
0.3587710596	multiple variables
0.3587535214	massive amounts of
0.3587451190	similarity model
0.3587274614	each round
0.3586654638	kernel two sample
0.3586653167	small training data
0.3586108625	methods produce
0.3585138705	evaluate and compare
0.3584799971	structured datasets
0.3584502541	constrained bayesian
0.3584315849	low per iteration
0.3584174924	nonlinear dynamic
0.3583652111	model hyperparameters
0.3582720705	preserving federated
0.3582062280	variational inference methods
0.3581637301	learning and transfer
0.3581617457	a meta learning approach
0.3581581446	normalized networks
0.3581019336	task learning
0.3580365969	classification based
0.3580077015	without needing
0.3579856897	much harder
0.3578429342	performance to existing
0.3578336760	an important open problem
0.3578188319	called adaptive
0.3577603501	heavily relies on
0.3576781090	earlier work
0.3576647876	\ epsilon
0.3576547091	based optimization methods
0.3576464071	lower regret
0.3576438572	proposed frameworks
0.3576238169	probabilistic principal component
0.3575686230	deep learning based approaches
0.3575262468	layer networks
0.3575187594	hierarchical clustering algorithm
0.3574655909	achieved accuracy
0.3574532050	kernel adaptive
0.3574372671	random binary
0.3574272923	provide experimental
0.3574266713	constant function
0.3573820393	efficient greedy
0.3573680337	and slab priors
0.3573513968	particularly suited
0.3572905355	\ vee
0.3572787722	conditional mean
0.3572236542	no regret online
0.3572209163	data clustering
0.3572102501	relationship between
0.3571650237	forest based
0.3571574850	linear time
0.3571263703	model generated
0.3571245558	intrinsic structure
0.3570855405	benchmark functions
0.3570849358	superior generalization
0.3570841660	estimation performance
0.3570761632	ability to recover
0.3570520775	neighbor graphs
0.3570440186	general graphical
0.3570051260	comprehensive review
0.3569800777	generating data
0.3569768360	reconstruction based
0.3569766546	meta learning approach
0.3569684692	problem of estimating
0.3569563427	standard monte
0.3568914515	increase accuracy
0.3568398952	require prior knowledge
0.3567690212	single forward pass
0.3567418304	click through
0.3567040112	sample data
0.3566715382	semantic analysis
0.3566185956	efficient sequential
0.3566092560	efficient online learning
0.3565901119	standard gradient
0.3565641361	additional memory
0.3564931549	ability to generate
0.3563711332	method substantially
0.3563198766	structural risk
0.3562310956	accuracy achieved
0.3561855661	accuracy and complexity
0.3561489747	flow dynamics
0.3561351765	attention based neural
0.3558005242	optimal parameter
0.3557087390	collaborative deep
0.3556998206	hierarchical architecture
0.3556222007	yields comparable
0.3555891280	an extensive comparison
0.3555846666	a markov decision process
0.3555680713	imaging problems
0.3555436877	method outperforms existing
0.3555180097	no matter
0.3555133587	two fold
0.3555054016	box adversarial attacks
0.3554333024	query by example
0.3554262676	performance and computational
0.3554105611	wide range of
0.3553605474	datasets such as cifar 10
0.3553268650	robust policy
0.3552978915	training of deep networks
0.3551073912	random data
0.3551022290	process modeling
0.3550942427	carlo estimator
0.3550394562	partially known
0.3549793743	\ hat
0.3549462806	threat models
0.3549459146	datasets collected
0.3549446051	learning based approach
0.3549283200	fundamentally different
0.3548801346	variant of adam
0.3548634672	provide numerical results
0.3548199318	owned by
0.3547232270	shows significant
0.3546761124	framework shows
0.3546275126	detection techniques
0.3544945936	\ pm
0.3544536666	learning challenge
0.3544412154	non smooth
0.3544187818	advanced methods
0.3543516030	problem posed
0.3543142553	contextual data
0.3542885077	beliefs about
0.3542767597	suffering from
0.3542110253	input output data
0.3542094558	enable training
0.3541493038	too slow
0.3541437918	scale up
0.3541318232	approaches assume
0.3540631817	deployed in real world
0.3540374379	network clustering
0.3540257040	common issue
0.3540154010	endowed with
0.3539569470	attempt to solve
0.3539528206	least squares problem
0.3539268028	market prediction
0.3538975793	low accuracy
0.3538965774	matrix matrix
0.3538208774	hindered by
0.3538080705	environment model
0.3538036874	proposed algorithm converges
0.3538021958	model improves
0.3537428626	supervised learning paradigm
0.3537178762	graph neural network model
0.3536652289	associations between
0.3536251452	convexity assumption
0.3536043481	training technique
0.3535811334	armed bandit setting
0.3535794482	adversarial examples generated
0.3535286369	bayesian solution
0.3534969978	near linear time
0.3534712562	incorporates prior
0.3534680010	generalized framework
0.3534458924	difficult to determine
0.3534296283	stochastic multi armed
0.3534187013	order stationary points
0.3534069244	not directly applicable
0.3533401348	sequence generated
0.3533289646	final classification
0.3532791953	learning context
0.3532525958	fundamental building
0.3532052609	variable space
0.3531815023	passing scheme
0.3531642498	latent prior
0.3531486655	framework outperforms
0.3531462914	learning framework called
0.3531354169	bayesian nonparametric model
0.3531345890	efficient neural architecture
0.3531330039	bayesian information
0.3530640431	distributed adaptive
0.3530119432	$ l_1
0.3529733370	take into account
0.3529495149	specific problems
0.3529451436	expected value
0.3529102501	connection between
0.3528581017	mallows models
0.3528032825	features for classification
0.3527714793	+ +
0.3526686712	training approach
0.3526634236	domain adaptation method
0.3526526352	adversarial image
0.3526401435	computer vision and natural language processing
0.3526330524	decoder networks
0.3526033169	wasserstein generative
0.3525897201	approach applies
0.3525511912	high sample
0.3525158042	\ begin
0.3524975281	wasserstein 2
0.3524737272	without incurring
0.3524446507	data characteristics
0.3524091046	exponential time
0.3523874984	non degeneracy
0.3523538136	recurrent convolutional
0.3523488121	networks exhibit
0.3523242786	experiments on benchmark datasets
0.3522873025	graph based approach
0.3522367662	common datasets
0.3522119808	direction method
0.3521730320	gaussian process state
0.3521626011	re identification
0.3520896026	classical multi armed
0.3520220999	zero order
0.3520117466	urgent need
0.3519875180	specific problem
0.3519388167	perform on par
0.3519291277	convex risk
0.3519006390	signals defined
0.3518989963	applications of deep learning
0.3518980563	differentially private data
0.3518453200	sparse linear models
0.3518448517	nonparametric conditional
0.3518392184	caused by
0.3518242493	methods offer
0.3518092054	sparse graphical
0.3517847949	effective tool
0.3517772313	least squares support vector
0.3517689293	real world use cases
0.3517378227	\ mid
0.3516908402	graph problems
0.3515876055	ranging from
0.3515631867	quantization of neural
0.3515489393	data classification
0.3514935986	training losses
0.3514919283	learning heuristics
0.3514703763	a valuable tool
0.3514611916	predictive machine
0.3514447005	learning latent
0.3513820512	online method
0.3513654032	local policy
0.3513112620	review existing
0.3512055715	per example
0.3511846703	probability of success
0.3511471828	unsupervised approach
0.3511080489	learning of linear
0.3510702972	trial and error process
0.3510635225	adversarial and stochastic
0.3510366161	nearly tight
0.3510125827	risk functions
0.3510034346	number of parameters
0.3509823596	expensive for large
0.3509301873	range dependencies
0.3509067738	prove strong
0.3508831105	robust approach
0.3508097535	based speech
0.3507969670	association study
0.3507885740	hybrid deep
0.3507868673	significantly improve performance
0.3507401484	compact set
0.3507143118	input information
0.3507079119	multi fidelity gaussian
0.3506558167	number of hidden states
0.3505846810	based optimisation
0.3505480334	private empirical risk
0.3505112132	factors including
0.3504859790	full rank
0.3504754566	multivariate statistical
0.3504331900	learned latent
0.3503832768	rank 1
0.3503557017	complex spatial
0.3502625340	flexible model
0.3502382941	sequence of actions
0.3502243594	datasets including
0.3501820300	aims to maximize
0.3501771096	true class
0.3501392025	dual approach
0.3501154342	easy to obtain
0.3500981057	splitting algorithm
0.3500847165	absolute value
0.3500723834	high quality data
0.3499958881	efficient variational inference
0.3499768260	time horizons
0.3499564624	collaborative machine
0.3499551702	policy performance
0.3498818044	\ sqrt
0.3498690677	line of research
0.3498612250	success of deep learning
0.3498162464	polynomial dependence on
0.3498122972	policy gradient based
0.3497965516	supervised and reinforcement
0.3497926053	model generalizes
0.3496806064	continuous learning
0.3496602475	improved image
0.3494680451	applications in machine learning
0.3494365105	under suitable conditions
0.3493399781	ranking performance
0.3493245052	parametric methods
0.3492796546	every day
0.3492721118	larger problems
0.3492687497	stage classification
0.3492660363	trained to discriminate
0.3491846384	converges faster than
0.3491760622	high dimensional functions
0.3491736994	large mini batch
0.3491545161	unsupervised model
0.3491287927	requiring additional
0.3491115576	require large amounts of
0.3491096199	= \ omega
0.3490867609	recently emerged as
0.3490356528	theoretic interpretation
0.3490144592	much smaller
0.3489843300	both synthetic and real world
0.3489639805	modern machine learning algorithms
0.3489348201	approach empirically
0.3489334546	lagrangian method
0.3489301225	learned parameters
0.3489071414	nearly linear time
0.3488960531	regularized objective
0.3487348963	introduce adaptive
0.3487171427	vector recovery
0.3486903577	replaced by
0.3486787234	non rigid
0.3486604928	extensive set of experiments
0.3486524346	highly non convex
0.3486353141	demonstrate significant improvement
0.3486278891	data subset
0.3486161329	regularized optimization
0.3485774483	bayesian classification
0.3485598591	routinely used
0.3485309270	experiments support
0.3485148426	noise features
0.3484920104	distances between
0.3484601199	suitable for large scale
0.3484115233	perform exact
0.3483916674	proposed method consistently
0.3483745319	\ gamma
0.3483104989	large noise
0.3482832270	rank matrix recovery
0.3482543459	distributed approach
0.3481849672	top performing
0.3481759689	noise settings
0.3481719414	\ rightarrow \ infty
0.3481673096	recall curve
0.3481589447	examples including
0.3481572821	bounds showing
0.3481525927	including linear
0.3481352670	networks with relu activation
0.3480952566	generative tasks
0.3480832480	convex optimization based
0.3480445413	translates into
0.3479813751	surrogate model based
0.3479651323	\ leq p \ leq
0.3479505210	tasks demonstrate
0.3478910119	present results
0.3478717517	studied topic
0.3478224768	annealing algorithm
0.3478182319	strong prior
0.3477957709	0,1 ^ d
0.3477532116	long short term memory neural
0.3477232851	structure activity
0.3477134247	$ l_2
0.3476793626	efficient tool
0.3475893947	samples generated
0.3475508465	set prediction
0.3475415697	high compression
0.3474786936	\ | _2 ^ 2
0.3474333929	improve classification accuracy
0.3474225988	1 1 e
0.3473905917	online data
0.3473883357	outperforms previous methods
0.3473707844	generation methods
0.3473695315	forecasting techniques
0.3473326621	few thousand
0.3473267275	latent feature models
0.3473134322	cifar 10 images
0.3472919113	deviate from
0.3472573055	a reproducing kernel hilbert space
0.3472417142	publicly available dataset
0.3471832287	distribution functions
0.3470601470	learned image
0.3470321702	true data
0.3469599200	an expectation maximization algorithm
0.3469288362	learning optimal
0.3469263624	clustering procedure
0.3469234362	time window
0.3469187438	model specific
0.3468911080	neural network based approaches
0.3468544349	challenge 2019
0.3468073750	iterates generated by
0.3467531967	deterministic model
0.3467431087	distribution induced
0.3466897807	random function
0.3466498059	policy distribution
0.3466416271	non negative least squares
0.3466162570	geometry based
0.3466159287	data sample
0.3465167494	existing parallel
0.3464762897	effective sample
0.3464684768	rely upon
0.3464506027	simulated and real world data
0.3464427513	label based
0.3464382426	sequential tasks
0.3463881852	order interaction features
0.3463730680	correctly specified
0.3463675790	left and right
0.3463637846	feature variables
0.3463213288	dimensional matrix
0.3463135998	cifar 100 datasets
0.3462521840	learning architecture
0.3462424945	supervised and unsupervised learning
0.3461161133	structure enables
0.3461132707	simple form
0.3460738802	linear problems
0.3460615675	network classification
0.3460178959	higher accuracy than
0.3459294630	conduct empirical
0.3459190374	under suitable assumptions
0.3459036369	optimal points
0.3458654321	enables users
0.3458567938	manifold model
0.3458465927	previous theoretical
0.3458348327	tradeoff between
0.3458159798	increases performance
0.3458155175	linear estimation
0.3457364962	refers to
0.3457257237	selection technique
0.3457211171	gradient based approaches
0.3457120594	training and test distributions
0.3457088669	analysis yields
0.3456560327	specific information
0.3456554514	experimental results on benchmark datasets
0.3455890633	evolves over time
0.3455751219	alternative training
0.3455564761	suffer from high
0.3455345681	expression datasets
0.3454299740	did not
0.3453743734	above mentioned
0.3453338424	first order gradient based
0.3453142680	promising alternative
0.3452466609	future data
0.3452434573	extensive study
0.3452238986	a comprehensive overview
0.3451888093	general method
0.3451781088	consistent estimates
0.3451692929	reinforcement learning task
0.3451314706	algorithm requires
0.3451179704	estimation task
0.3450836348	fair model
0.3450673008	matrix regression
0.3450456933	dynamic information
0.3450384992	unbiased estimate
0.3450314525	achieve regret
0.3450139716	vast amounts of data
0.3450138626	high dimensional statistical
0.3450075124	robust matrix
0.3449820022	efficient convolutional
0.3449721151	large sparse
0.3449023109	^ \ beta
0.3448519851	empirical effectiveness
0.3447785384	aiming at
0.3447442449	matrix analysis
0.3447305197	capture higher order
0.3447240386	provably good
0.3446920335	simple settings
0.3446905428	aims to discover
0.3446863496	tasks and demonstrate
0.3446855105	unified treatment of
0.3446711738	5 shot
0.3446188221	benchmarks including
0.3445816368	level performance
0.3445378014	achieved great success in
0.3445253631	more nuanced
0.3443945313	matrix problems
0.3443395189	future applications
0.3443160082	dimensional binary
0.3443076976	gaussian weights
0.3442621072	signal and image
0.3442472609	approximation framework
0.3442375080	does not necessarily
0.3442277200	level classification
0.3442233663	high false
0.3442084532	trained with gradient descent
0.3441830203	optimal behavior
0.3441476035	become increasingly important
0.3440980959	deep nonlinear
0.3440948298	low dimensional continuous
0.3440903710	network representations
0.3440854973	initial model
0.3440825991	regression networks
0.3440433754	learning perspective
0.3440420419	rich semantic
0.3440160687	dimensional convolutional neural
0.3439903713	exploration process
0.3439644307	source and target distributions
0.3439310375	self adaptive
0.3439119177	from scratch
0.3439089846	approach scales
0.3439015196	stochastic weight
0.3438910270	sparse blind
0.3438729235	provided to support
0.3438515554	shift adaptation
0.3437278500	renewed interest
0.3437171255	improve prediction
0.3436131810	prediction approach
0.3435954405	accuracy and convergence
0.3435830237	machine learning tool
0.3435799588	real image
0.3435431898	number of floating point
0.3434927931	risk analysis
0.3434838295	model structure
0.3433536965	top 1 accuracy
0.3433435690	a comparative study
0.3433237487	both worlds
0.3433175851	tradeoffs between
0.3433037975	1 + \ varepsilon
0.3432802050	point based
0.3432626184	called \ textit
0.3432417722	five real world datasets
0.3431664382	positive and unlabeled data
0.3431021305	relationships between
0.3430992632	a nonparametric bayesian approach
0.3430886416	brain data
0.3430736487	without requiring
0.3430295767	\ boldsymbol \ theta
0.3430032825	structures in data
0.3429716437	much easier
0.3429268704	feature selection problem
0.3429267514	suffers from
0.3428451747	enable accurate
0.3428369003	challenges posed
0.3427978445	cnn trained
0.3427534302	expression dataset
0.3427335466	high dimensional feature
0.3427267697	size reduction
0.3426560620	affected by
0.3426145911	so far
0.3425553166	optimal statistical
0.3425494394	much larger
0.3424197484	viewed as
0.3424020915	discriminative latent
0.3423887941	a deep convolutional neural network
0.3423490711	control environments
0.3423303459	capable of detecting
0.3423147760	a closed form solution
0.3421120398	strongly convex objective
0.3420946231	projected stochastic
0.3420826763	unseen target
0.3420410835	significant accuracy
0.3420150548	optimization task
0.3419804791	closed form expressions for
0.3419258470	larger sample
0.3419220712	dealing with
0.3419062405	inducing penalty
0.3419061909	dimensional images
0.3418846262	linear loss
0.3418786888	training techniques
0.3418766421	aware network
0.3418463817	easier to train
0.3417891339	building upon recent
0.3417883962	popular in machine learning
0.3417207423	promising solution
0.3416893663	network sampling
0.3416322172	structure inference
0.3415767017	prior results
0.3415732861	identification method
0.3415404676	similar in spirit
0.3415313206	approximation power
0.3414863450	far away
0.3414484880	algorithm makes
0.3414099875	estimation based
0.3413812502	first order oracle
0.3413576383	gain insights into
0.3413459542	policy reinforcement learning
0.3413017116	recognition problem
0.3412161811	functional theory
0.3411357098	dependent label
0.3411317990	\ boldsymbol x ^ \ rm
0.3411205476	provided to illustrate
0.3410982109	exploration algorithm
0.3410866192	true parameters
0.3410732687	extraction and classification
0.3410263821	online decision
0.3410109841	dimensional limit
0.3409725188	achieving results
0.3409258017	literature focuses
0.3409243503	sparse neural
0.3409079636	related problem
0.3409028635	standard loss
0.3408963009	generative deep learning
0.3408842588	data analysis problems
0.3408715805	continuous state action
0.3408495779	robust methods
0.3408447270	during meta training
0.3408392121	representations of words
0.3408229625	produce highly
0.3407795800	learning ability
0.3407468122	2d and 3d
0.3407446776	an evolutionary algorithm
0.3407239634	quickly adapt
0.3406372142	design based
0.3406326900	dictionary learning algorithms
0.3405845438	central challenge
0.3405728554	variational inference techniques
0.3405320513	solve complex
0.3405145448	directly applicable
0.3404916433	varying levels of
0.3404515376	complex dynamic
0.3403983486	non identical
0.3403646698	\ em
0.3403644017	out of sample
0.3403636744	every year
0.3402880356	discuss practical
0.3401540740	next event
0.3400631921	approximate kernel
0.3400526034	learning vector
0.3400347472	multiple graph
0.3400257345	temporal link
0.3399640504	magnitude fewer
0.3399473229	best response
0.3399389591	\ textit
0.3399106397	python framework
0.3398654954	gaussian matrix
0.3398131231	information hidden in
0.3398119626	sufficient to guarantee
0.3397969794	proposed framework achieves
0.3397482987	decomposition algorithms
0.3397324511	standard gradient descent
0.3397192339	learning mechanisms
0.3396480709	pc like
0.3396207063	global average
0.3396012197	graph representing
0.3395851046	incorporating prior
0.3395760734	competitive methods
0.3394910226	investigation into
0.3394241148	rate and momentum
0.3392999940	translation systems
0.3392328091	flexible framework
0.3392174424	conditional average
0.3392165300	constant functions
0.3391803198	number of linear regions
0.3391694522	accuracy and uncertainty
0.3391668862	non asymptotic convergence
0.3390538620	statistical information
0.3390413869	field of machine learning
0.3390091061	tractable algorithm
0.3389553871	present extensive
0.3388580852	nonlinear structure
0.3388220161	deep learning theory
0.3387554404	similar approaches
0.3387501726	part ii
0.3387171752	agnostic explanations
0.3387154353	social network data
0.3386970812	mismatch between
0.3386866662	well defined
0.3386851786	k means clustering algorithm
0.3386716026	evolve over time
0.3386711884	general model
0.3386569118	optimal exploration
0.3386422502	dimensional datasets
0.3386323148	model parameter
0.3385339796	pre trained deep neural
0.3385020513	numerical convergence
0.3384688868	compared to existing methods
0.3384334101	transformed into
0.3384164698	solution set
0.3384053253	graph domain
0.3384035431	method and demonstrate
0.3384024825	needed to train
0.3383474628	significantly more accurate
0.3383393672	ten fold
0.3383368752	tight upper
0.3383273889	kernel principal component
0.3383187701	effective technique
0.3383168756	$ \ ell_ \ infty
0.3382350263	estimation in high dimensions
0.3382090055	present numerical results
0.3381937720	latent causal
0.3381900096	previous techniques
0.3381564569	an unsupervised manner
0.3381194189	specific knowledge
0.3380953863	reconstruction algorithm
0.3380924304	\ wedge
0.3380826038	amounts to solving
0.3380807540	regret scales
0.3380660154	kernel approach
0.3380468109	interacts with
0.3380376381	results comparing
0.3380302389	results match
0.3379456480	correlated time series
0.3379227783	method takes
0.3378571141	adversarial approach
0.3378544574	one minute
0.3378483783	including regression
0.3378227939	efficient design
0.3377208487	algorithm employs
0.3377070545	notion of regret
0.3376921617	10 ^ 3
0.3376354253	important examples
0.3375895507	fewer samples than
0.3375584667	structure and node
0.3375501524	separate networks
0.3375236512	developing methods
0.3374962398	problems in machine learning
0.3374924820	sigma ^ 2
0.3374835397	y = f
0.3374602608	least squares estimation
0.3374199367	model formulation
0.3374131461	machine learning and optimization
0.3373959550	specific assumptions
0.3373871457	squares problems
0.3373177724	based meta
0.3373032032	traditional method
0.3373010390	machine learning based methods
0.3372878576	a convolutional neural network
0.3372676594	parametric modeling
0.3372388032	robust stochastic
0.3372379721	robust convergence
0.3372150037	while keeping
0.3372117876	t distributed stochastic
0.3371759719	4 bit
0.3371725681	reduces memory
0.3371614698	difficult to optimize
0.3371569570	stability based
0.3371508301	existing adversarial
0.3371398389	few epochs
0.3370780247	suffer from
0.3370486027	_ 1
0.3370433711	existing software
0.3370261948	popular choice
0.3370221113	upper bounds on
0.3369969833	local error
0.3368744017	the art
0.3368718453	optimal prediction
0.3368490147	based methodology
0.3368358373	solving such problems
0.3367686941	general approaches
0.3367289582	advances in machine learning
0.3367260340	a brief overview
0.3366743697	nonlinear learning
0.3366340844	efficient global
0.3366205458	extremely useful
0.3366086301	train deep
0.3364404419	recent advances in deep learning
0.3363613036	knowledge gained from
0.3363410512	signal processing and machine
0.3363334325	training of generative adversarial networks
0.3363131577	underlying network
0.3362611986	$ \ ell_0
0.3362336239	spectrometry data
0.3362230767	latent task
0.3361400407	$ \ bullet
0.3361162643	important special
0.3360868591	objective optimization problem
0.3360281814	deep bayesian neural
0.3360034010	presence of missing data
0.3359795078	asymptotic bounds
0.3359694158	general assumptions
0.3359566332	logistic regression problem
0.3359404977	provide reliable
0.3358835634	level attention
0.3358303810	model error
0.3357570304	based cf
0.3357262241	data follow
0.3357199358	multi task deep learning
0.3356983541	approaches typically
0.3356729553	provide explanations
0.3356176792	multiple deep
0.3355372271	learning on graph structured data
0.3355293495	rank structure
0.3354941301	source library
0.3354676870	probabilistic setting
0.3354578932	based surrogate
0.3354530300	data likelihood
0.3353173291	large labeled
0.3352902110	estimation tasks
0.3352511845	number of episodes
0.3352128562	learning library
0.3351451992	q function
0.3351434137	tabular setting
0.3351349912	correspondences between
0.3351204076	generalized gauss
0.3351161435	provide upper bounds
0.3350043304	a comprehensive review
0.3349781882	robustness of neural networks
0.3349363408	original training data
0.3348895497	sequence to sequence learning
0.3348544306	deals with
0.3348477785	human visual system
0.3347775484	deep semi
0.3347455250	assumed to follow
0.3347009309	tighter than
0.3346717778	mean field variational
0.3346277855	approach and demonstrate
0.3346151377	\ frac
0.3346038704	ask whether
0.3345904542	arbitrary input
0.3345887159	learned end to end
0.3345800703	training and test data
0.3345676851	a priori
0.3345642055	a long standing problem
0.3345617519	simulations demonstrate
0.3345584667	complexity and computational
0.3344373713	| \ nabla f
0.3344281348	data dimensions
0.3344250521	few labeled examples
0.3343892034	connected layer
0.3343614892	optimization performance
0.3343057961	easily fooled by
0.3343007334	critical information
0.3342967451	average prediction
0.3342854520	new avenues
0.3342450971	issue by introducing
0.3342111189	performance and sample
0.3341592764	without sacrificing accuracy
0.3341271034	state distributions
0.3341102786	readily extended
0.3341086396	simple technique
0.3340834980	many body physics
0.3340813889	comply with
0.3340541058	layer relu network
0.3340457493	shared model
0.3339873362	top 1
0.3339823596	convergence to global
0.3339053800	depending on
0.3338773618	driven decision making
0.3338527868	function learning
0.3338389511	policy training
0.3337926186	data objects
0.3337407160	progress towards
0.3337394118	arg \
0.3337233903	network interpretability
0.3337120629	active learning based
0.3337059933	properties of molecules
0.3336479871	required to train
0.3335299460	function prediction
0.3335157490	differences between
0.3335131592	theory based
0.3335130332	efficient black box
0.3334980005	network outputs
0.3334978816	benefiting from
0.3334976933	polynomial time algorithms
0.3334836188	relevant data
0.3334730767	robust gradient
0.3334627188	sources of uncertainty
0.3334585741	important roles in
0.3334373207	sequential algorithm
0.3334300649	deep multi
0.3334079291	analysis and experimental
0.3333736865	full resolution
0.3333714734	generation algorithm
0.3333483899	based tests
0.3333251756	adaptation problem
0.3332979845	much slower
0.3332524605	model evaluations
0.3332354165	mnist data
0.3331466002	unsupervised generative
0.3331243048	optimization approaches
0.3330939554	learning based method
0.3330840844	layer representations
0.3330736257	difficult problem
0.3329993038	little effort
0.3329870647	adaptive training
0.3329080053	exploration for reinforcement
0.3329075539	expected performance
0.3328868642	extensive experiments on real world
0.3328257609	\ mathcal s _2
0.3328087685	sub goals
0.3327631450	recovery results
0.3327201682	t ^ \ frac
0.3326996526	represented by
0.3326994834	chain monte carlo methods
0.3326860650	trained on imagenet
0.3326828129	large scale sparse
0.3326779506	efficient reinforcement
0.3326035642	reinforcement learning problem
0.3325927446	classification applications
0.3325848691	scales linearly with
0.3325756544	tree algorithm
0.3325610837	partly because
0.3325582714	model utilizes
0.3325498511	reference data
0.3324608671	deep image
0.3324239000	depart from
0.3323821532	tasks with sparse rewards
0.3323494071	trained in isolation
0.3323454875	recent study
0.3323357803	non gaussian noise
0.3322499107	successful approach
0.3322111189	analysis and empirical
0.3321901492	present experiments
0.3321263297	open set domain
0.3321087939	previous work
0.3320982849	favorably against
0.3320877482	demonstrate improved performance
0.3320850600	structural changes
0.3320767970	classifier training
0.3320654452	norm penalization
0.3319534226	systematic framework
0.3319308995	machine learning survival
0.3319216223	real datasets demonstrate
0.3318877033	model produces
0.3318684379	k + 1
0.3318333360	characterized by
0.3317623395	even though
0.3317502714	k median
0.3317262977	3d convolutional neural networks
0.3317105511	m_ \
0.3316876292	a tale
0.3316839295	independent factors
0.3316555999	classification rate
0.3316530547	minimal adversarial
0.3316189906	provide recommendations
0.3316118826	\ mathbb
0.3316070688	filtering techniques
0.3315806410	taking advantage of
0.3315488722	strongly convex loss
0.3315452149	training performance
0.3315265236	methods including
0.3313935508	exploration algorithms
0.3313476163	batch algorithm
0.3313158801	multiple linear
0.3313111457	number of neurons
0.3312931801	causal models
0.3312685240	smooth loss
0.3312140538	world applications
0.3312047919	planning algorithms
0.3312035744	means problem
0.3312027283	deep convolution neural
0.3311952405	evaluation method
0.3311020094	deep learning training
0.3310227026	attempts to learn
0.3310000286	propose ways
0.3309913977	unable to
0.3309662188	develop theory
0.3309616050	expensive to obtain
0.3309113031	maximization approach
0.3309055244	standard method
0.3308894038	building machine
0.3308638530	efficient deep
0.3307740613	sampling model
0.3307689958	\ sigma_1
0.3307402350	co teaching
0.3307334926	network of agents
0.3306950727	correspond to
0.3305985206	robust estimates
0.3305970154	two layer neural network
0.3305770709	\ arg
0.3305158040	simple binary
0.3304545734	underlying model
0.3304369242	largely focused
0.3304339431	rl techniques
0.3304336000	bayesian non negative
0.3304133528	first order optimization methods
0.3303318844	function optimization
0.3303082955	framework combining
0.3302573619	discriminate between
0.3302554574	label function
0.3302466306	targeted adversarial
0.3302188765	this article proposes
0.3301319163	fast rates of convergence
0.3300989739	^ d
0.3300845199	matrix concentration
0.3300795005	time slice
0.3300359986	result in poor
0.3300324179	large scale convex
0.3300084146	method incorporates
0.3299585749	prediction networks
0.3299180501	presented to illustrate
0.3298829091	outperforms existing algorithms
0.3298764514	^ t
0.3298564705	serves as
0.3297438681	aware graph neural
0.3297332955	clinical datasets
0.3297160134	a data driven approach
0.3297131610	stochastic expectation
0.3296832858	stochastic training
0.3296797466	modeling task
0.3296583673	filtering algorithm
0.3295796460	large amount of labeled data
0.3295709302	introduce bias
0.3295520819	tree process
0.3295471933	requires multiple
0.3295352710	distinguishing between
0.3294548966	regularized problem
0.3293921989	neural network based model
0.3293646633	a recurrent neural network
0.3293558955	classification settings
0.3293447127	sparse observations
0.3293157394	method makes
0.3292505195	non vanishing
0.3292479728	gp methods
0.3292284037	based reasoning
0.3292146296	an end to end fashion
0.3292125063	equivalence between
0.3291591147	each other's
0.3291506782	a semi supervised manner
0.3290890485	valued features
0.3290770887	extensive form
0.3290621080	non linear state space
0.3290478044	testing phase
0.3290410508	arbitrary probability
0.3290228937	sequential model
0.3290025754	an encoder decoder
0.3289692521	data sequence
0.3289594524	learning with kernels
0.3289051521	language processing applications
0.3289014202	based planning
0.3288909653	algorithm consistently
0.3288779415	become increasingly
0.3288662910	streaming fashion
0.3288462057	many real world applications
0.3288407075	variety of machine learning tasks
0.3288309347	detection results
0.3287918946	provided to demonstrate
0.3287907410	shot recognition
0.3287779512	classical problems
0.3287595056	representation learning method
0.3287473052	algorithm outputs
0.3286979897	pioneered by
0.3286352970	adversarial neural
0.3286115182	superior predictive
0.3285716033	this paper proposes
0.3285583720	discriminative tasks
0.3285521059	learning robust
0.3285223146	large scale experiments
0.3284939521	wide neural
0.3284865976	field of research
0.3284743681	generalization in reinforcement learning
0.3284683112	graph completion
0.3284518385	adapt to new tasks
0.3284080053	experiments using real
0.3284066021	design and analysis
0.3283745004	approximate variational
0.3283715335	solving inverse
0.3283660764	text to image
0.3283526912	active learning framework
0.3283400624	neural network models
0.3283032307	supervised learning framework
0.3282784603	the regularized leader
0.3282766869	extensive simulation study
0.3282273369	ensemble learning methods
0.3282261121	performs better than
0.3282060455	mixing time
0.3281852596	robust clustering
0.3281798951	^ \ alpha
0.3281390230	order correlations
0.3280937655	achieve small
0.3280837947	bayesian nonparametric models
0.3280782016	boundary value
0.3280722909	classification networks
0.3280476252	dependent speaker verification
0.3280433192	rl tasks
0.3280190503	motivated by
0.3279753702	a unified
0.3279670300	real and synthetic data
0.3279255006	more precisely
0.3279032657	full supervision
0.3279024642	dimensional representations
0.3278977397	important problems
0.3278832791	gradient boosting decision
0.3278448165	belong to
0.3278102360	belonging to
0.3278096378	large matrix
0.3277988183	mass index
0.3277869442	improved version
0.3277687026	available on github
0.3277302411	focuses on
0.3277157309	drop in accuracy
0.3276656065	estimation algorithms
0.3276084080	deviates from
0.3276032528	an overview
0.3275994771	task set
0.3275993086	heavily rely on
0.3275956347	optimal kernel
0.3275858364	balance between
0.3275655575	\ big
0.3275109007	o \ bigl
0.3275102961	coming from
0.3274681213	unknown function
0.3274201863	towards understanding
0.3273954178	key requirement for
0.3273684711	$ \ ell_p
0.3272761191	matrix completion methods
0.3272733657	real samples
0.3271829400	each data point
0.3271803124	efficient estimator
0.3271588739	non parametric bayesian
0.3271555048	available at https
0.3271354407	gradient approach
0.3271220712	relying on
0.3270329801	process data
0.3269890131	sample distribution
0.3269644552	improvement over existing
0.3269536684	valid confidence
0.3269317990	1 \ leq i \ leq
0.3269295843	matching network
0.3269229889	layer architecture
0.3269055400	individual specific
0.3269017650	m + n
0.3268668276	decomposition problem
0.3267906876	order stationary point
0.3267810664	guaranteed to recover
0.3267198716	learning deep
0.3267184130	problem at hand
0.3266389153	an extensive empirical study
0.3266120806	\ sigma ^ 2
0.3265887525	dive into
0.3265847825	improved predictive
0.3265326047	learning of markov
0.3264154037	nonparametric approach
0.3264066021	selection and classification
0.3264024406	quadratic optimization
0.3263857514	short term memory network
0.3263682711	shot setting
0.3263345962	automatic classification of
0.3263197583	determine whether
0.3263123172	adaptive rate
0.3262690621	graph feature
0.3262425178	problem in machine learning
0.3261839540	real dataset
0.3261788503	importance sampling based
0.3261661124	r ^ d
0.3261431822	reliance on
0.3261411011	class classification problems
0.3261257103	gradient descent based
0.3260643895	more importantly
0.3260175334	performed extensive
0.3260102674	adaptation tasks
0.3259709364	automatic methods
0.3259543772	making accurate
0.3259358583	an online fashion
0.3258260362	high dimensional model
0.3258173822	\ delta ^ 1
0.3257808648	tasked with
0.3257575548	relations between
0.3256843342	1 bit
0.3256517537	small set
0.3256422773	kernel canonical
0.3256262737	prior assumption
0.3255925772	recovery algorithms
0.3255865044	methods yield
0.3255634108	free learning
0.3255628421	common problems
0.3255326047	learning of deep
0.3255107106	data limited
0.3254701035	multiple time series
0.3254070796	dimensional output
0.3254066021	analysis and experiments
0.3253856664	multi task neural
0.3253255010	modern deep neural
0.3252767236	tensor model
0.3252714324	process control
0.3252673013	care about
0.3252559099	increased computational
0.3252129514	variational bayesian neural
0.3251754262	best scored random
0.3251609268	coincides with
0.3251536087	specific graph
0.3250606351	general data
0.3249957781	adoption of machine learning
0.3249858414	paper extends
0.3249592011	efficient neural network
0.3249455650	normally distributed
0.3249161893	logic networks
0.3249068223	differs from
0.3247901241	the traveling salesman problem
0.3246670728	correct model
0.3246362310	rate decay
0.3246235693	k means + +
0.3246061563	\ right
0.3245294271	under standard assumptions
0.3244964830	aim to learn
0.3244957571	based policy
0.3244874603	predict missing
0.3244386794	consuming process
0.3244304153	model incorporating
0.3243910247	non strongly convex
0.3243807822	robustness to adversarial examples
0.3243616491	obtain results
0.3242015922	synthetic and real data experiments
0.3241915677	under certain conditions
0.3241535741	relies on
0.3241249407	randomized numerical
0.3239637505	compression algorithms
0.3239343944	much cheaper
0.3239324536	noisy pairwise
0.3239279843	driven fashion
0.3238943802	manifold learning methods
0.3238543789	cause misclassification
0.3238314705	arising from
0.3238222552	complex neural networks
0.3238165275	voice activity
0.3237956195	real world data sets demonstrate
0.3237637177	\ pi
0.3237228313	real world data demonstrate
0.3237144703	synthetic and real world problems
0.3236768841	inverse model
0.3236651825	proposed techniques
0.3236631445	non myopic
0.3236595780	mean and variance
0.3235821293	proposed approach achieves
0.3235732800	computational approach
0.3235453967	interpolating between
0.3235428993	faster rate
0.3235072912	data complexity
0.3234540533	based training
0.3233405746	number of rounds
0.3232928319	strong assumptions about
0.3231630227	individual methods
0.3231586887	specific target
0.3231531179	complexity lower bound
0.3231465459	convolutional and fully
0.3231366653	based formulation
0.3231284454	algorithm independent
0.3231185074	supervised deep
0.3231035065	methods suffer
0.3230446914	inspired by
0.3230008377	distinguish between
0.3229601977	input and output variables
0.3229440185	growing interest
0.3229346091	results indicate
0.3228571749	\ star
0.3227923390	advances in artificial intelligence
0.3227690158	slow feature
0.3227536277	analysis also reveals
0.3227478191	alignment methods
0.3227398423	classical machine
0.3227290448	classification result
0.3227019409	broad classes of
0.3226998273	sparse methods
0.3226877496	million people
0.3225922480	learning classifier
0.3225862091	graph optimization
0.3225705242	similarity analysis
0.3225666257	length principle
0.3225413265	negative data
0.3225334068	sparse model
0.3224954490	process regression model
0.3224953016	\ mathbf x
0.3224851717	scenario based
0.3224635774	larger than
0.3224447874	discriminate against
0.3224193453	based sampling
0.3224112729	deep reinforcement learning approach
0.3223476972	world dataset
0.3223259336	ability to extract
0.3223001274	differentiate between
0.3222969107	smaller than
0.3222673686	linear methods
0.3222603881	modeling technique
0.3222241769	findings indicate
0.3221864604	per column
0.3221834736	classical gaussian
0.3221773363	implied by
0.3221400584	predictive algorithms
0.3221363362	learning fair
0.3220572022	region of interest
0.3220254163	simple and scalable
0.3219951589	approach outperforms existing
0.3219651801	specific dataset
0.3219014719	very fast
0.3218665699	fair data
0.3218283802	co evolution
0.3217558904	owing to
0.3217437231	euclidean distance between
0.3217329270	popular approach
0.3217211761	interpretable models
0.3217108322	multiple base
0.3217102501	insights into
0.3216840288	probability tending to one
0.3216299247	kullback leibler divergence between
0.3215651909	data settings
0.3215350021	bounded from above
0.3215206505	relatively easy
0.3214904407	experiment results show
0.3214749546	key challenge
0.3214615165	gradient based adversarial
0.3214608484	$ \ ell_2
0.3214392799	top 1 accuracy on imagenet
0.3214050748	including deep
0.3213719712	large amounts of
0.3213703339	trained to distinguish
0.3213497707	group of users
0.3213456810	target learning
0.3213152425	remaining useful
0.3212945680	agreement between
0.3212780927	recent deep
0.3212286295	structured dictionary
0.3212034687	small labeled
0.3211824927	gradient problem
0.3211147133	model simulations
0.3211126113	challenges posed by
0.3210865895	optimal minimax
0.3210305628	of speech tagging
0.3209053318	flexible enough
0.3208916289	cause and effect
0.3208432254	off policy estimation
0.3207987189	bayes method
0.3207500758	algorithm reduces
0.3207405223	traditional neural network
0.3207105959	efficient learning algorithms
0.3206906520	$ l ^ 2
0.3206030562	underlying physical
0.3205830366	problem domain
0.3205788750	x _i
0.3204913732	function based
0.3204441757	dialogue system
0.3204106046	h ^ 3
0.3204100046	learning goal
0.3204088872	interpretation method
0.3203800026	based prior
0.3203458479	non zeros
0.3203331466	sparse deep learning
0.3203208714	similar data
0.3203114663	conflict between
0.3203061567	chain monte carlo algorithms
0.3203018067	bayesian optimization method
0.3202950352	real problems
0.3202515105	continuous vector
0.3202473077	information contained in
0.3202265704	there exist
0.3201563131	network based approach
0.3201473700	substantial improvements over
0.3201412961	nearly matching
0.3201246695	hard to optimize
0.3201019732	classical empirical
0.3200833561	second moment
0.3200757242	require large
0.3200567184	the vapnik chervonenkis
0.3200126280	complexity results
0.3199791161	driven machine learning
0.3199679688	often overlooked
0.3199479679	task loss
0.3199135424	architecture search methods
0.3198740032	fail to learn
0.3197903279	sample bias
0.3197634444	$ f_
0.3197585687	the neural tangent kernel
0.3197346355	generalize well
0.3197278196	online kernel
0.3197204199	future performance
0.3197176996	across subjects
0.3197099870	encoder decoder models
0.3197078782	main question
0.3196979827	leading to improved
0.3196781411	deep artificial neural
0.3196611474	high predictive
0.3196504051	bayesian sparse
0.3195989636	directions for future
0.3194993204	an end to end manner
0.3194669132	top 5 accuracy
0.3194317812	achieves performance
0.3194080053	complexity and memory
0.3194075738	classification approach
0.3194069149	capable of providing
0.3193902331	generation sequencing
0.3193620725	network structure learning
0.3193577554	free networks
0.3193404582	theoretic analysis
0.3192758541	under certain regularity
0.3191929665	effectively model
0.3191774920	$ l_p
0.3191732105	based intrusion detection
0.3191645107	trained deep neural
0.3191494153	mining approach
0.3191119364	fall into
0.3190530463	gaussian error
0.3190474055	\ mathbf z
0.3190138577	a generative adversarial network
0.3190073484	easily extended to
0.3188598404	resorting to
0.3188473243	lieu of
0.3188233316	ten years
0.3187932274	art performance
0.3187664515	monte carlo techniques
0.3187423428	| \ mathcal s |
0.3186621860	layered neural
0.3186487321	classical optimization
0.3185914693	human like
0.3185657013	network information
0.3185606373	ml algorithm
0.3185466832	data log likelihood
0.3185296171	not fully understood
0.3185177608	study showed
0.3184959067	deep random
0.3184918693	stage 1
0.3184692337	high dimensional stochastic
0.3184692144	+ \ eta
0.3184426899	statistical data
0.3184262678	machine learning and signal processing
0.3183860131	adversarially trained models
0.3183541260	estimation results
0.3183504230	available for download
0.3183431863	e e
0.3183315859	arbitrary data
0.3183166108	determining whether
0.3182738160	run mcmc
0.3182471273	pairwise data
0.3182327806	implicit model
0.3182187495	inversion attacks
0.3181583879	representation learning approach
0.3181500559	experiments on mnist
0.3180753490	continuous representation
0.3179642077	state network
0.3179170910	k core
0.3178971431	nonlinear problems
0.3178902631	first principles
0.3178695814	difficult to detect
0.3178647085	based dynamic
0.3178641627	approximate methods
0.3178516820	better suited
0.3178416718	based adaptive
0.3178219132	multiplied by
0.3177850059	reward based
0.3177825812	signal model
0.3177720840	large scale empirical study
0.3177187486	regularized graph
0.3176688143	wide variety of
0.3176526127	temporal difference learning with
0.3176515931	most probable
0.3176461382	real time strategy
0.3176209191	proposed procedure
0.3175665669	model level
0.3175247026	3d scene
0.3174888572	wide spectrum
0.3174611253	online performance
0.3174258323	an attractive alternative
0.3174245926	generalize better
0.3173737707	predictive learning
0.3173525951	paper reviews
0.3173314414	network features
0.3172969291	popular deep learning
0.3172394361	what's more
0.3172363913	more broadly
0.3171654288	optimal function
0.3171627387	model represents
0.3171271358	true causal
0.3171152259	robust performance
0.3170784866	multiple features
0.3169877123	3d scenes
0.3169735008	q values
0.3169654328	getting stuck
0.3169229141	tasks without forgetting
0.3168852495	inferences about
0.3168613638	generate data
0.3168428863	achieve accurate
0.3168268297	fair machine
0.3167661082	attributes such as gender
0.3167312491	data density
0.3167290142	matching upper and
0.3166578691	including images
0.3166557043	_ p
0.3166494029	standard q learning
0.3166467745	party computation
0.3166354998	$ \ ell_1
0.3166343664	cost per iteration
0.3165477377	proposed approach outperforms
0.3164714224	relatively small
0.3164595165	agent systems
0.3164231568	method of choice
0.3164010368	powerful framework
0.3163785435	modified version
0.3163489594	positive semi
0.3163006215	consistent results
0.3162806316	supervised multi
0.3162407942	preserving graph
0.3162215570	a deep learning based
0.3162194299	learning continuous
0.3161679634	binarized neural
0.3161408169	problems require
0.3161340519	structured regression
0.3161235970	latent model
0.3161075619	network prediction
0.3160952172	top 10
0.3160732778	corresponds to
0.3160484162	nonparametric two sample
0.3160189371	\ ln t
0.3159722766	deep generative neural
0.3159496391	adaptive multi
0.3159109572	recognition datasets
0.3159060092	a fully convolutional network
0.3158963901	efficient classification
0.3158931770	r squared
0.3158213818	extracting information
0.3158134219	in silico
0.3158074276	aims to identify
0.3157662348	model reduces
0.3157413387	applications to real
0.3157347832	trained on mnist
0.3157343581	develop techniques
0.3156200812	lasso regularization
0.3156140090	combines deep learning
0.3156120169	dimensional parameter
0.3156107419	handle multiple
0.3155770296	based forecasting
0.3155350978	complex features
0.3154282568	key component
0.3154041065	probability based
0.3153970933	un trained
0.3153725636	so called
0.3152806222	develop efficient
0.3152527238	algorithm for learning
0.3152296662	noisy information
0.3152073274	algorithms including
0.3151948064	multi task network
0.3151794521	dominated by
0.3151281757	t ^ 3
0.3150519612	produced by
0.3150270301	self labeling
0.3149815304	nonparametric framework
0.3149567110	samples increases
0.3148940898	adaptive bayesian
0.3148540234	into account
0.3148447189	data requirements
0.3148201253	let alone
0.3148184802	unsupervised cross
0.3147522783	classification dataset
0.3147161835	stochastic case
0.3146883879	based quantization
0.3146815979	large scale study
0.3146792169	recent advancements in
0.3146780875	ability to preserve
0.3146767002	expensive function
0.3146389550	classification procedure
0.3146277212	free optimization
0.3145918534	simple implementation
0.3145319325	networks outperform
0.3144920981	partial data
0.3144912852	general form
0.3144835769	problem parameters
0.3144756443	adaptation performance
0.3144413464	benefited from
0.3143803177	base completion
0.3143362037	maximum inner
0.3142895813	proposed algorithm achieves
0.3142481788	an efficient
0.3142310144	provide additional
0.3142117554	source datasets
0.3141657854	high dimensional robust
0.3141562605	interpreted as
0.3141538292	target graph
0.3141322165	non exchangeable
0.3141238723	near identity
0.3140923938	difference between
0.3140808716	data noise
0.3140637988	pair of nodes
0.3140415395	method based
0.3140382049	serve as
0.3140324530	impacted by
0.3140199370	framed as
0.3139890062	recent theoretical work
0.3139852016	improves prediction
0.3138622060	family distributions
0.3137939087	publicly available data
0.3137892731	visual speech
0.3137802254	including cifar 10
0.3137701243	rely on
0.3137688099	stochastic variant
0.3136466745	this paper presents
0.3136425675	aims to improve
0.3136419439	with high probability
0.3136267876	simple algorithm
0.3135998228	\ log
0.3135830730	model components
0.3135731549	rising interest in
0.3135227823	standard graph
0.3135088435	net model
0.3134812639	domains such as healthcare
0.3134694100	dynamical models
0.3134581050	machine learning based approaches
0.3134531617	k ^ 2
0.3134413464	originate from
0.3134341237	local dataset
0.3134231568	classification of data
0.3133956555	+ 1
0.3133737157	balancing exploration
0.3133717012	minimization approach
0.3133589883	identify features
0.3133535741	depends on
0.3133355056	search process
0.3133277803	lead to improved
0.3132957299	common data
0.3132766725	product states
0.3132571444	go explore
0.3131910072	reliable machine
0.3131742080	contained within
0.3131620196	based learning
0.3131573740	processing algorithms
0.3131423817	significant role
0.3131114232	great interest
0.3130644866	better generalization
0.3130570752	key aspect
0.3130268744	the last few decades
0.3130254606	recent work
0.3130225897	synthetic as well as real world
0.3130138979	end task
0.3129859191	sparsity problem
0.3129852954	millions of parameters
0.3129053016	\ sqrt t
0.3128990220	adaptive approach
0.3128564505	data vector
0.3128150042	optimal estimators
0.3128069779	batch based
0.3127688389	large classes
0.3127502316	conventional training
0.3127484770	local intrinsic
0.3126827718	an important research topic
0.3126612944	data challenge
0.3126482345	simulations on synthetic
0.3126417061	class problem
0.3126239634	model framework
0.3125854920	real application
0.3125646587	large scale training
0.3125554302	deep knowledge
0.3125320946	readily extended to
0.3125192710	trade off between exploration and
0.3124850639	needed to achieve
0.3124629342	approaches aim
0.3123079951	step toward
0.3122958790	semi supervised deep
0.3122690990	semi parametric models
0.3122516686	augmented neural
0.3121360081	independent regret
0.3121221701	trade off parameter
0.3121179894	family of kernels
0.3121068616	primarily focused on
0.3120936560	large discrete
0.3120896160	while incurring
0.3120763248	new perspectives
0.3120590368	bring together
0.3120246361	sensing problem
0.3120021792	available at http
0.3119905443	application of machine learning techniques
0.3119822079	informative latent
0.3119575048	aims to detect
0.3119231515	a flurry
0.3119069579	efficient stochastic
0.3118741204	training improves
0.3118443237	model takes
0.3118388018	standard supervised
0.3118381171	parallel coordinate
0.3118259535	shared across
0.3117807223	an upper bound
0.3117737825	expected prediction
0.3117544572	time series clustering
0.3117254860	adaptive data
0.3117131294	up to logarithmic factors
0.3117102501	correlations between
0.3116191382	become very popular
0.3116186769	go to infinity
0.3115133768	up to log factors
0.3114720215	\ mathcal h
0.3114470669	critic architecture
0.3113934390	high dimensional gene
0.3113749836	adaptive algorithm
0.3113736518	model knowledge
0.3112780054	technique outperforms
0.3112719187	derive theoretical
0.3112359851	information estimation
0.3112064455	design methods
0.3111658150	large scale deep learning
0.3111628484	outperforms competitive
0.3111628363	incurred by
0.3111449610	task feature
0.3110907510	validation procedures
0.3110219816	popular technique
0.3110195606	off policy learning
0.3110134913	one class
0.3108819916	generalise well
0.3108639103	active research area
0.3108608317	algorithms perform
0.3108047222	efficient clustering
0.3107815044	bayesian generative
0.3107791604	hierarchical deep
0.3107345265	real world experiments
0.3107252573	bayesian inverse
0.3106874772	k fold cross
0.3106096581	true rank
0.3106094859	dissimilarities between
0.3105578011	ii error
0.3105212377	scales to large
0.3104968336	based autoencoder
0.3104231568	method of learning
0.3104154988	neural network approximation
0.3103984454	faster algorithms
0.3103703080	\ bx
0.3103477316	counterfactual risk
0.3103179286	time course
0.3102966697	supervised clustering
0.3102789991	upper bound on
0.3102691755	amenable to
0.3102660359	5 fold
0.3102120084	leads to poor
0.3101900990	one class classifier
0.3101385799	suffered from
0.3101129712	unbalanced optimal
0.3101073371	representation learning approaches
0.3101060764	immediately after
0.3101056238	essential component
0.3100021181	adaptive feature
0.3099888839	fast and flexible
0.3099567646	a primal dual
0.3099288286	net training
0.3099242647	effective data
0.3098786365	deep relu neural
0.3098364900	method estimates
0.3097900308	close to optimal
0.3097886387	each iteration
0.3097354359	experiments on two real world datasets
0.3096887287	identification problems
0.3096763971	three kinds
0.3096678665	factor models
0.3096551644	random neural
0.3096116271	evidence to support
0.3096046607	convex setting
0.3095897474	specific parameters
0.3095817298	jointly model
0.3095513139	continuous state and action
0.3095244058	data generated
0.3095169206	results shows
0.3094789724	matching minimax
0.3094770975	efficient algorithm to compute
0.3094661732	convolutional deep
0.3094640427	provide practical
0.3094598779	relu neural
0.3094145593	and classification in
0.3093886741	focussing on
0.3093809012	resort to
0.3093786817	design of experiments
0.3093546399	promising paradigm
0.3093527695	fields of machine
0.3093447381	aware learning
0.3093401476	source software
0.3093063652	network learning
0.3092985579	an important role
0.3092517713	+ \ epsilon
0.3091893748	underlying true
0.3091886995	per class
0.3091718595	modeling process
0.3091479533	efficient algorithm for solving
0.3091023681	polynomially many
0.3090805617	learning tools
0.3090584502	fast stochastic
0.3090507017	loss of information
0.3090283702	time instant
0.3090272258	practical algorithm
0.3090223830	\ hat \ rho
0.3089849709	developed algorithms
0.3089693259	body of research
0.3089441422	large enough
0.3088915616	accuracy rates
0.3087997280	validated on synthetic
0.3087755940	estimation process
0.3087581482	exponential increase
0.3086234439	dimensional linear regression
0.3084904233	develop algorithms
0.3084268269	a unifying framework
0.3083965589	a neural network based
0.3083955455	model dependent
0.3083691672	deep learning algorithm
0.3083576041	modern methods
0.3083497632	each worker
0.3083066686	in vitro
0.3082587800	m step
0.3082193772	promising numerical
0.3082149891	determines whether
0.3082066031	this chapter
0.3081815753	r ^ n \ times
0.3081346148	\ nabla f
0.3081158492	conventional machine learning
0.3081038845	standard neural networks
0.3080335454	method demonstrates
0.3079832290	a probabilistic perspective
0.3079632673	aims to address
0.3079315546	effectively applied
0.3079205151	multi layer neural
0.3079203791	increasing availability
0.3079011891	^ * _
0.3078768517	grows linearly with
0.3078726856	over smoothing
0.3078257555	important tasks
0.3078206845	tighter generalization
0.3077720806	1 + \ epsilon
0.3077504901	local causal
0.3077037152	deep learning based framework
0.3076652935	model enables
0.3076591620	risk based
0.3076556309	great challenge
0.3076251885	number of labeled examples
0.3076212429	capable of representing
0.3076031991	\ mathcal
0.3075765844	neural collaborative
0.3074751914	focusing on
0.3074651924	aim to improve
0.3074476302	equipped with
0.3074306207	magnitude faster than
0.3073946982	probability of error
0.3073897485	graph features
0.3073669205	stable linear
0.3073637961	space of probability measures
0.3073436280	leveraging unlabeled
0.3072941890	logistic regression models
0.3072793867	point problems
0.3072592989	inference approach
0.3072592382	unsupervised learning approach
0.3072462138	an artificial neural network
0.3072382361	proposed solutions
0.3071895946	similarities between
0.3071876276	relied on
0.3071144458	| a |
0.3070921037	gives rise
0.3070654616	i vectors
0.3070470878	recovery algorithm
0.3069933597	vary across
0.3069897250	learning discrete
0.3069895946	integrated into
0.3069565727	d + 1
0.3069508899	non differentiability
0.3069504845	factorization algorithm
0.3069496136	| h
0.3069485489	superiority over
0.3069449288	robustness against adversarial
0.3068947785	entropy principle
0.3068551517	\ delta ^ 2
0.3068305918	common causes
0.3067928306	alternative algorithms
0.3067519686	scalable multi
0.3067470608	unsupervised data
0.3067308427	aiming to learn
0.3067003337	complex model
0.3066993307	$ l_ 0
0.3066794452	spectral data
0.3066760457	multiple noisy
0.3066690772	standard tool
0.3066588548	novel regularization method
0.3066577631	efficient linear
0.3066163977	efficient approach
0.3066155306	batch reinforcement
0.3065785814	simple model
0.3065783544	this short paper
0.3065220215	\ sum_ i = 1 ^
0.3063924096	does not require
0.3063819247	source domain data
0.3063281118	action pairs
0.3062930010	fusion method
0.3062849711	some mild assumptions
0.3062728520	algorithm involves
0.3061430656	distributed linear
0.3061281696	point algorithm
0.3060707825	task in data
0.3060551168	computing devices
0.3060179533	under mild
0.3060174515	current deep
0.3060117681	plethora of
0.3059407762	algorithm for solving
0.3059079837	shown to yield
0.3058472748	excels at
0.3058394390	c index
0.3058105149	= \ infty
0.3057908623	problem called
0.3057773076	m eeg
0.3056876870	regression algorithms
0.3056868127	task of inferring
0.3056779557	wealth of information
0.3056666320	detection approaches
0.3056027687	ubiquitous in machine learning
0.3055685355	approach incorporates
0.3055449205	learning of disentangled
0.3055420905	training from scratch
0.3055274890	stochastic model
0.3054950195	graph sampling
0.3054840519	learn embeddings
0.3054806821	driven decision
0.3054054264	points sampled
0.3053714858	up to date
0.3053610068	unsupervised learning method
0.3053434420	zero mean
0.3052816353	poisoning attacks against
0.3052557000	higher classification
0.3052394458	\ mathbb r ^ d
0.3052011679	estimating heterogeneous
0.3051957862	toy and real
0.3051611178	general analysis
0.3051465765	adaptive activation
0.3051418094	class learning
0.3051167886	fast and scalable
0.3050919812	matrix optimization
0.3050582657	proof relies on
0.3050469313	results clearly demonstrate
0.3050313040	accomplished by
0.3050004031	sparsity model
0.3049706340	task model
0.3049195534	optimal results
0.3049106466	theoretic tools
0.3049102217	research problems
0.3048540222	free algorithm
0.3048363387	quantization techniques
0.3048273829	classification approaches
0.3047619313	generative deep
0.3047455535	probabilistic machine
0.3047440851	specifically trained
0.3046924861	mean field inference
0.3046510654	experimental results show
0.3046445183	aims at building
0.3046105180	gain insight into
0.3046061632	^ 8
0.3045732778	tend to
0.3045443389	stochastic multi
0.3045368078	estimation in high dimensional
0.3045203492	based reinforcement learning
0.3045110934	general approach
0.3044905033	depend on
0.3044612579	existing model based
0.3044347097	control setting
0.3044282919	perform local
0.3044101973	wide range of applications
0.3043734581	training parameters
0.3043194689	three main contributions
0.3042787845	stochastic latent
0.3042644124	gradient type
0.3042611782	role in determining
0.3042424214	family of loss functions
0.3042371925	this letter
0.3042329214	the hilbert schmidt independence criterion
0.3042296445	deep learning method
0.3041602248	learning methodologies
0.3041477791	\ mathbb r
0.3041473760	conventional algorithms
0.3041013881	non deterministic
0.3040793967	two step
0.3040782140	world datasets
0.3040705052	segmentation method
0.3040704000	experiments on real and synthetic data
0.3040573322	useful life
0.3040554876	$ support norm
0.3040329859	induced by
0.3039978466	too costly
0.3039907510	automatic hyperparameter
0.3039817066	0,1 ^
0.3039696693	algorithm generates
0.3039676101	discussed in detail
0.3039333744	time horizon
0.3039031702	the infinite width limit
0.3039018987	methods exhibit
0.3038691596	computing framework
0.3038682368	parametric setting
0.3038463086	recent advances in
0.3038404182	limited number of samples
0.3038211929	significantly more robust
0.3037693772	significant speed
0.3037134475	theoretically demonstrate
0.3036781342	standard variational
0.3036586414	simple architecture
0.3036270425	learning ensembles
0.3036045852	modeling methods
0.3035986900	classical bayesian
0.3035896151	polynomial time algorithm
0.3035491357	= 1
0.3035241824	the past few decades
0.3034621508	dimensional data sets
0.3034514944	liu et
0.3034514944	zhang et
0.3034401023	classification and link
0.3033781673	depth analysis
0.3033617122	class of activation functions
0.3032999837	existing classifiers
0.3032860566	learn general
0.3032637713	$ th order
0.3032234576	sampling approaches
0.3032211986	algorithm combines
0.3031992299	the dawid skene
0.3031512310	a statistical perspective
0.3031166424	\ tt
0.3031149991	existing theory
0.3030851494	non submodular
0.3030766648	adaptive neural
0.3030142077	learning policy
0.3030034306	free online
0.3029932342	non convergent
0.3029620526	point model
0.3029293285	alternating least
0.3029250500	multi armed bandits with
0.3028997823	network approach
0.3028892226	learns to generate
0.3028748388	with overwhelming probability
0.3028469349	online problems
0.3028367266	disagreement between
0.3028209666	forecasting framework
0.3028113060	single feature
0.3027705509	co training
0.3027253177	limited computational
0.3027153253	error entropy
0.3027044878	present empirical
0.3026889510	pertains to
0.3026834612	1 \ delta
0.3026746600	equally well
0.3026584376	infer causal
0.3026072643	estimating optimal
0.3026030532	compact model
0.3024981549	correlates well with
0.3024924323	exact methods
0.3024866983	improve computational efficiency
0.3024691252	^ 1 3 t ^ 2
0.3024283088	random point
0.3024175444	3d cnn
0.3023980164	optimal parameters
0.3023631180	stochastic gradient hamiltonian
0.3023109997	enables training
0.3022797889	mixture of experts model
0.3022401095	approach makes
0.3022357365	bottleneck principle
0.3022348256	a latent variable model
0.3022225152	near optimality
0.3021904166	driven learning
0.3021851623	improved algorithm
0.3021813730	focused on
0.3021724614	information theoretic lower
0.3021578671	care units
0.3021518750	million training
0.3020895132	dimensional scaling
0.3019900706	tuning strategy
0.3019607465	asymptotic behaviour of
0.3019453931	\ varepsilon ^ 1
0.3019366071	parametric regression
0.3019319528	an r package
0.3019265699	the shelf
0.3018916358	critical problem
0.3018755849	\ beta_1
0.3018717868	sample mean
0.3018565945	suffer from low
0.3018156020	algorithm based on alternating
0.3017848257	online experiments
0.3017793477	an unsupervised fashion
0.3017581642	explaining deep
0.3017567684	bayesian structure
0.3017327519	a machine learning model
0.3017226961	network communication
0.3017151157	critical decision
0.3016589413	| ^ 2
0.3016581535	datasets demonstrates
0.3016511803	multiple experiments
0.3016141537	well performing
0.3016112117	set up
0.3015833829	features learned
0.3015732322	biased toward
0.3015131319	called multi
0.3015002703	outperforms related
0.3014526752	two stages
0.3014329218	leads to improved
0.3014231914	algorithm guarantees
0.3014091235	three stage
0.3013739038	policies trained
0.3013538181	training large
0.3013495302	achieves similar
0.3013420131	degradation in performance
0.3012949205	learning of visual
0.3012837455	regression in high
0.3012779043	relation between
0.3012376470	side observations
0.3011718039	adaptive model
0.3011656688	bias in machine learning
0.3011264296	10 year
0.3010884411	temporal representations
0.3010781924	stochastic neural
0.3010707825	methods in deep
0.3010400644	differentially private algorithms for
0.3010145537	semi supervised method
0.3010091659	separate data
0.3009961545	approach achieved
0.3009203876	practical bayesian
0.3009184993	pre trained models
0.3008923092	cifar 10 datasets
0.3008819188	important case
0.3008687267	dynamic analysis
0.3008632505	algorithm automatically
0.3008546652	cifar 10 and cifar 100 datasets
0.3008358143	solution obtained
0.3008331325	systematic approach
0.3008057739	consisting of
0.3007835270	pruning approach
0.3007615575	markov models
0.3007391147	life data sets
0.3007326816	variational learning
0.3007290953	t + 1
0.3006819015	supported by
0.3006304383	active area
0.3006280883	based multi agent
0.3005981702	promising tool
0.3005380441	irrespective of
0.3005157508	real world and synthetic data
0.3004818427	data driven method
0.3004323885	against adversarial perturbations
0.3004201871	linear functional
0.3003833332	human computer
0.3003795144	this paper investigates
0.3003764445	| \ mathcal
0.3003623015	end to end framework
0.3003539783	testing framework
0.3003177326	content based image
0.3002981661	multi scale data
0.3002965298	dimensional set
0.3002949205	learning and online
0.3002649642	number of layers
0.3001999354	reasoning behind
0.3001966883	confronted with
0.3001858427	multivariate time
0.3001670339	network functions
0.3001486686	pruning based
0.3001035706	knowledge learned
0.3001023801	classical stochastic
0.3000944450	extensive experiments conducted on
0.3000930010	fitting problem
0.3000869128	ability to predict
0.3000606251	problem of finding
0.3000397394	data recorded
0.3000198500	space dimension
0.3000038025	particle markov chain
0.2999657980	quantities of interest
0.2999649243	true data distribution
0.2999550169	well known
0.2999370040	patients diagnosed with
0.2999155715	on device
0.2999134895	one class support
0.2998972860	learned distribution
0.2998148511	\ ell_
0.2997164973	transfer tasks
0.2996637257	federated model
0.2996026291	dynamics based
0.2995625427	improve sample
0.2995520619	one to one correspondence
0.2995358849	best performing
0.2995118612	additionally provide
0.2994394023	segmentation results
0.2994155408	starting from
0.2993684754	this study investigates
0.2993612703	statistical models
0.2993569688	significantly affected
0.2993529078	method significantly
0.2993265980	vastly different
0.2993012904	results demonstrated
0.2992758968	optimal choice
0.2992624359	online robust
0.2992221299	and vice versa
0.2991989574	rank data
0.2991804294	state features
0.2991459516	time periods
0.2991399847	discuss future
0.2991230899	second price
0.2991191363	accounted for
0.2990896587	a large scale dataset
0.2989647511	approach requires
0.2989453287	carlo methods
0.2989399122	current state of
0.2989087557	alternative method
0.2988149927	functional linear
0.2988093917	relative improvement over
0.2987647693	well recognized
0.2987549887	filtering based
0.2987382590	captured by
0.2987015520	independence properties
0.2986871365	shows strong
0.2986787383	online model
0.2986690107	linear neural
0.2986685442	detailed study
0.2986601468	deep learning tasks
0.2986546546	simple structure
0.2986500805	\ eta_i
0.2986329337	large amount of unlabeled data
0.2985855355	learning structured
0.2985476055	conventional neural
0.2985394731	few shot tasks
0.2985141421	large number of
0.2985091142	scale study
0.2984931034	state of
0.2984918562	remarkably well
0.2984869816	synthetic as well as real
0.2984785355	method consistently
0.2984674541	data examples
0.2984231860	clustering structure
0.2984152091	proposed classifier
0.2984138900	underlying statistical
0.2984053697	learning low dimensional
0.2984001668	sum game
0.2983195071	deal with
0.2982583077	related information
0.2982305808	framework for deriving
0.2981464045	methods aim
0.2980956108	comparable or better
0.2980929265	numerical experiments on synthetic
0.2980476020	unlike previous work
0.2980209134	comprehensive simulation
0.2980110938	look at
0.2979778143	entropy method
0.2979446859	independent data
0.2979412603	distortion theory
0.2978845823	$ \ mathtt
0.2978681611	hinton et
0.2978171959	supervised data
0.2977921527	stochastic learning
0.2977918160	experiments conducted on
0.2977507649	a unified perspective
0.2977275444	^ 1 2
0.2976949932	art methods
0.2976933274	ln n
0.2976522446	stopping time
0.2976382182	deep conditional
0.2976225806	self consistent
0.2976156919	shown to enjoy
0.2976103380	conditional neural networks
0.2976029789	nonlinear stochastic
0.2975884411	weighted regression
0.2975846350	relying only on
0.2975101974	nonlinear time series
0.2975003542	a single forward pass
0.2974948512	subjected to
0.2974615712	non stationary environment
0.2974401023	reduction and clustering
0.2974401023	classification and semantic
0.2974399122	outperforms state of
0.2973927793	integrated approach
0.2973883203	value at risk
0.2973690417	problem of recovering
0.2973546636	classification function
0.2973445277	susceptible to adversarial
0.2973412270	meta learning method
0.2973408144	poly time
0.2973157616	consist of
0.2972779455	networks fail
0.2972646457	provably converges to
0.2972583033	analogy between
0.2972456502	areas of machine learning
0.2972399265	constraints imposed by
0.2972041652	learning and deep learning
0.2971880441	akin to
0.2971353032	causal relationships between
0.2971316528	number of topics
0.2971194163	study comparing
0.2970469669	m estimation
0.2970234348	effective solution
0.2970186449	achieving strong
0.2970105270	art algorithms
0.2970010100	information about
0.2969603857	regularized version
0.2968981408	vision and machine
0.2968394822	data modeling
0.2968268196	for use with
0.2968100378	d ^ 2
0.2968085946	an open source python
0.2967742157	simple analysis
0.2967738782	methods designed
0.2967550227	enables learning
0.2967168871	learning word
0.2967131741	information network
0.2966711121	attempts to address
0.2966556321	originates from
0.2966525284	based solely
0.2966364277	efficient approximation
0.2965953868	thereby allowing
0.2965852539	local structural
0.2965741818	\ times
0.2965680900	remains poorly
0.2965458892	consists of three components
0.2965452285	o \ left
0.2965068444	principled way
0.2964908565	hidden layer neural
0.2964401023	prediction and node
0.2964155701	great impact on
0.2963821589	generating multiple
0.2963634718	forest model
0.2963328637	probabilistic methods
0.2963306372	unsupervised tasks
0.2963175927	becomes increasingly
0.2962928751	constrained matrix
0.2962164632	suffer from catastrophic
0.2961383318	weighted version
0.2961247310	prone to
0.2961152836	automated decision
0.2961091801	based explanation
0.2960832509	transferable adversarial
0.2960300127	similar methods
0.2960264797	adaptive deep
0.2960220215	\ rightarrow \ mathbb r
0.2960138458	modal distributions
0.2959553448	field games
0.2959495195	supervised learning algorithm
0.2959390616	understanding tasks
0.2959378805	minimization algorithms
0.2959341095	the world's
0.2959232027	plug in
0.2959192516	neighbor method
0.2959064705	emerged as
0.2959063030	structure estimation
0.2958818875	residual neural
0.2958077151	number of rows
0.2957955677	critical challenge
0.2957804238	gradient policy
0.2957725406	trained deep
0.2957663658	a wide range
0.2957385853	uplift models
0.2957158244	standard markov
0.2957043271	non convex functions
0.2957022021	$ \ mathcal l _
0.2956555089	pair of items
0.2956523922	self reported
0.2956426593	compare results
0.2956280052	support vector data
0.2956154282	augmented neural networks
0.2956091303	experiments with real world
0.2955998472	seminal work
0.2955938708	large model
0.2955588561	improve predictive
0.2954318436	physical data
0.2954197921	quality samples
0.2954068530	existing data
0.2954053477	benchmark image
0.2953855088	chaotic system
0.2953403112	item interactions
0.2953066103	while still maintaining
0.2952922867	global feature
0.2952093841	network components
0.2951871713	mikolov et
0.2951792861	cheaper than
0.2951650565	determined by
0.2951638099	data resources
0.2951314888	improving upon
0.2951254649	step towards
0.2951238898	extremely sensitive
0.2951132679	equally good
0.2951131016	many body
0.2951023801	current standard
0.2950908446	point process models
0.2950826840	per unit
0.2950691570	transductive and inductive learning
0.2950242035	a bayesian approach
0.2950149970	semi supervised learning with
0.2949903274	batch optimization
0.2949854476	a real world dataset
0.2949834082	thoroughly studied
0.2949779596	large volumes of
0.2949445054	\ ell_1
0.2949362709	transport based
0.2949058949	number of bits
0.2948627461	much faster
0.2947893532	multi armed bandit problem with
0.2947818966	successfully applied to
0.2947814729	experimental results on synthetic data
0.2947147609	adaptive group
0.2946930124	provide important
0.2946817113	critical task
0.2946478234	multiple classification
0.2946384496	clinical setting
0.2946272178	training processes
0.2945863350	intends to
0.2945311320	data driven models
0.2944476714	inducing prior
0.2944348288	underlying dynamical
0.2944283003	5 fold cross
0.2944196921	dealt with
0.2944140897	approach lies
0.2943850009	algorithm for computing
0.2943732520	based solution
0.2943571063	linear speed up
0.2943477440	density networks
0.2943196328	efficient graph
0.2943171551	regression models
0.2942827695	resulting classifier
0.2942758495	achieve significantly
0.2942635511	highly sensitive to
0.2942469722	clearly defined
0.2942406366	type model
0.2941883630	non zero
0.2941669431	the paper concludes
0.2941383443	continuous random
0.2941345776	seeks to learn
0.2941265814	rl method
0.2941245654	a multi armed bandit
0.2941090206	related data
0.2940801640	robustness to noise
0.2940760987	combines ideas from
0.2940544582	learning long term
0.2940506621	boosting decision tree
0.2939979574	classical kernel
0.2939822064	^ \ top
0.2939750360	likelihood training
0.2939595445	learn policies
0.2939586506	$ t_
0.2939012066	ml method
0.2938856334	optimal sparse
0.2938796961	primal variable
0.2938341784	search optimization
0.2938243414	central problem
0.2938128465	the perturbed leader
0.2937869029	existing method
0.2937762874	multiple model
0.2937667774	leads to
0.2937071931	approach demonstrates
0.2936572235	best arm identification problem
0.2936364643	model estimates
0.2936091269	exploration problem
0.2936073652	sequence models
0.2936040589	based reinforcement learning algorithms
0.2935900696	vector data
0.2935262557	attempt to learn
0.2934387781	distributed bayesian
0.2934146482	rate prediction
0.2933927393	the kullback leibler divergence
0.2933890814	good enough
0.2933532146	recent advances in deep
0.2932993214	learning literature
0.2932942200	$ norm
0.2932896104	dimensional latent
0.2932895965	a long standing challenge
0.2932817522	effective algorithms
0.2932274823	critically ill
0.2931676396	extra computational
0.2931438060	theory and demonstrate
0.2931355949	machine learning offers
0.2931301857	continuous dynamical
0.2931098644	deep structure
0.2930771106	q network
0.2930385165	devoted to
0.2930319998	features generated
0.2930028205	large dynamic
0.2930010189	multiple benchmark datasets
0.2929983267	data pairs
0.2929772213	perform online
0.2929631886	self tuning
0.2929431135	layer network
0.2929289678	achieves state of
0.2929224603	conditioned on
0.2929172750	theoretic lower
0.2928913761	dag models
0.2928747375	an online learning algorithm
0.2928345781	extraction process
0.2928269681	carlo approach
0.2928211825	3d rotations
0.2928006115	algorithms for nonconvex
0.2927991252	\ hat \ beta
0.2927940989	derive efficient
0.2927763363	efficient detection
0.2927576240	standard linear
0.2927469701	computer vision tasks
0.2927301387	form formula
0.2927259180	fastest known
0.2927204715	self regularization
0.2926907706	method for constructing
0.2926625232	simple tasks
0.2926363848	necessary and sufficient
0.2926113066	time series segmentation
0.2926066279	underlying density
0.2925934378	planning methods
0.2925879841	multiple local
0.2925493631	significant improvements compared
0.2925317177	space representations
0.2925215807	recent paper
0.2924340744	adaptive optimization
0.2924039373	\ mid s
0.2924035759	generalization in deep learning
0.2923392996	sufficient training
0.2923160117	hoc methods
0.2922362775	important research
0.2922278774	| \ cdot \ |
0.2922084232	small probability
0.2921503899	definite matrix
0.2921192861	encountered during
0.2921018205	^ 2 \ log
0.2920778169	log n
0.2920711653	rate analysis
0.2920696456	traditional stochastic
0.2920387040	10 fold
0.2920181301	capable of achieving
0.2919747793	time series modeling
0.2919422702	an open problem
0.2919397243	loss of accuracy
0.2919389444	image observations
0.2919215932	total number of
0.2918563130	performance remains
0.2918071424	adversarial attacks on deep
0.2917820510	strong correlation between
0.2917601804	memory neural
0.2917392777	an actor critic
0.2917302997	in vivo
0.2917064483	specific data
0.2916802341	in stark contrast
0.2916448476	binary networks
0.2916148645	stochastic oracle
0.2916023801	discrete representation
0.2915949408	inferring causal
0.2915809012	cope with
0.2915424835	function satisfies
0.2915087192	robustness of deep neural networks
0.2914843751	major problem
0.2914714693	broader class
0.2914696478	perform worse than
0.2914608052	classifier trained
0.2914424247	learning meets
0.2914332082	handle large scale
0.2913528354	results demonstrating
0.2913453968	wasserstein 1
0.2912776052	boosting model
0.2912180492	medical information
0.2911780289	non private
0.2911483064	type 2
0.2911425938	temporal classification
0.2911357792	designed to handle
0.2911337122	optimal linear
0.2911057348	severe class
0.2910478350	proposed layer
0.2910380599	principled bayesian
0.2910070373	minimax lower bounds for
0.2909899677	an online manner
0.2909795401	free deep
0.2909332860	output weights
0.2908968175	$ \ mathrm mmd
0.2908919295	data clusters
0.2908797816	likelihood problem
0.2908529053	approximate gaussian
0.2908309402	method solves
0.2908264696	requires knowledge
0.2908129936	attack model
0.2908030727	truth labels
0.2907507088	ml approach
0.2907435443	clustering high dimensional
0.2906808394	compromise between
0.2906798409	exact sparse
0.2906661213	every round
0.2906660726	realistic setting
0.2906646784	results point
0.2906036250	programming algorithm
0.2905716330	n ^ \ alpha
0.2905631507	pairs of nodes
0.2905218588	trained weights
0.2905137212	mapped into
0.2905055870	questions regarding
0.2904396967	number of atoms
0.2904316926	training neural
0.2904245917	unknown low rank
0.2903508305	semi supervised framework
0.2903338617	set of candidate
0.2903112054	deep unsupervised
0.2903094811	unsupervised neural
0.2903055668	hard to train
0.2902783958	single policy
0.2902277673	framework for designing
0.2902266873	improves model
0.2902195173	algorithm consists
0.2902044581	existing embedding
0.2901716665	algorithm applies
0.2901438060	learning in neural
0.2901438060	learning in real
0.2901438060	learning in large
0.2901438060	framework of learning
0.2901438060	learning and statistical
0.2901438060	learning of neural
0.2901438060	learning of latent
0.2901438060	learning of sparse
0.2901424155	world data sets
0.2900986464	maintaining similar
0.2900970917	sufficient and necessary
0.2900960259	parametric density estimation
0.2900783670	network function
0.2900379254	$ d_
0.2900251548	$ s_0
0.2900061298	each time step
0.2900019798	achieve strong
0.2899901899	sparse regime
0.2899633492	simple design
0.2899417480	predictive models
0.2899396955	aim to predict
0.2899277052	\ langle \ mathbf
0.2899201119	sign method
0.2898288514	0 p 1
0.2898207988	adversarial process
0.2898060104	online a b test
0.2897734356	performance and generalization
0.2897734356	training for deep
0.2897734356	classification of high
0.2897567139	much worse
0.2897470096	an adaptive
0.2897326325	more sample efficient
0.2897291063	based solely on
0.2896910385	drug interaction
0.2896367229	real time anomaly
0.2896181149	data dimension
0.2895809012	pertaining to
0.2895708338	optimal up to logarithmic factors
0.2895641322	denoising methods
0.2895572377	2 and 3
0.2895558349	without accessing
0.2895403486	rather than
0.2895283770	distinguishes between
0.2894781664	| \ mathbf
0.2894757350	efficient gradient
0.2894754036	p value
0.2894517890	non convex loss functions
0.2893930877	n \ rightarrow \ infty
0.2893592981	sum of squared
0.2893364312	adversarial methods
0.2893321600	exploitation trade off
0.2893259627	next word
0.2893070559	higher compression
0.2892853206	privacy amplification by
0.2892447689	iterates generated
0.2892317295	shows competitive
0.2892234413	agent learning
0.2892029289	function decomposition
0.2891904910	excess risk bounds for
0.2891895391	original distribution
0.2891865707	produce more accurate
0.2891438060	accuracy and model
0.2890502162	important insight
0.2890229121	structured multi
0.2890009261	optimal stochastic
0.2889309190	bayesian latent
0.2889296234	iid data
0.2888997898	series data mining
0.2888789728	five years
0.2888551505	paper suggests
0.2888309768	recurrent models
0.2887779554	matching lower
0.2887734356	inference of latent
0.2887734356	training in deep
0.2887520417	standard reinforcement
0.2886968282	little progress
0.2886773837	architecture trained
0.2886728637	relatively few
0.2886643820	inference performance
0.2886261567	hybrid models
0.2886016523	important contribution
0.2885797510	structure of bayesian networks
0.2885718676	$ \ ch
0.2885213241	large systems
0.2885198228	$ \ mathcal
0.2884532698	regression estimator
0.2884478362	task complexity
0.2884471999	high similarity
0.2884241001	difficult to compute
0.2884206752	formed by
0.2884155402	hybrid machine learning
0.2884121390	aims to extract
0.2884010216	based encoder
0.2884009594	in high dimensions
0.2883573542	seen and unseen
0.2883435693	susceptible to
0.2883347268	using deep neural networks
0.2882976842	gradient descent learning
0.2882957125	begin by
0.2882733260	linear structural
0.2882656683	domain information
0.2882314741	statistical and machine
0.2881706769	simple and effective
0.2881524994	time variant
0.2881438060	problem and present
0.2881337341	stationary environments
0.2880993126	preliminary experimental
0.2880842171	structured random
0.2880813845	layer neural
0.2880454972	improved prediction
0.2880235454	policy policy gradient
0.2880178077	surprisingly good
0.2880156244	relatively little
0.2880021577	sparse low rank
0.2879973898	the minimum description length
0.2879766746	a low rank matrix
0.2879475916	performs well
0.2879418029	aims to reduce
0.2879359279	presence or absence of
0.2879117188	the receiver operating characteristic
0.2878838169	robust to noise
0.2878576793	classifier based
0.2878028903	a general framework
0.2877923065	group of agents
0.2877905669	state of art results
0.2877847105	referred to as
0.2877686225	online estimation
0.2876910242	shown to achieve
0.2876894643	penalty based
0.2876881728	long time
0.2876488626	two key challenges
0.2876274334	language data
0.2876173402	pixel data
0.2876169350	effective method
0.2875707138	efficient machine learning
0.2875571601	prominent example
0.2875457203	arbitrarily close to
0.2874702653	based approximations
0.2874533637	level graph
0.2873925592	$ y_i =
0.2873874413	a unifying view
0.2873691490	likelihood gradient
0.2873520192	$ \ chi ^ 2
0.2873406272	training complexity
0.2872765158	does not necessarily lead
0.2872167526	much simpler
0.2871950886	present experimental
0.2871709556	compared to conventional
0.2871675936	links between
0.2870818456	network datasets demonstrate
0.2870628024	perform accurate
0.2870600958	theory and in practice
0.2870470923	efficient model free
0.2870257122	probabilistic deep
0.2870180679	r cnn
0.2869862833	vast amount of
0.2869605463	methods provide
0.2869243339	discrete optimal
0.2868599137	paper contributes
0.2868423337	standard machine
0.2868364835	low dimensional euclidean
0.2868329412	the art methods
0.2868251735	experiments on synthetic and real
0.2868242323	among others
0.2867875229	convex neural
0.2867831116	key performance
0.2867756630	product graph
0.2867754567	large volumes of data
0.2867567374	trained to predict
0.2867054170	less than half
0.2866821286	data problems
0.2866624584	based localization
0.2866468159	representations of molecules
0.2865945441	\ subseteq \ mathbb r ^
0.2865753464	dimensional structure
0.2865611946	mn ^
0.2865566940	tens of thousands of
0.2865177135	learning theoretic
0.2865146632	loop control
0.2864860575	fixed distribution
0.2864841565	gaussian bayesian
0.2864572343	body of literature
0.2864040909	multiple applications
0.2863692314	density gradient
0.2862774600	for learning linear
0.2861831308	demonstrate significant performance
0.2861343151	accuracy level
0.2861054046	constant time
0.2860898481	robustness of deep networks
0.2860793674	samples collected
0.2860427016	\ alpha ^ 2
0.2860056633	bag of features
0.2860051523	behavior data
0.2859519311	surrogate models
0.2859426423	proposed hybrid
0.2859368222	high dimensional asymptotic
0.2858957061	closer to
0.2858778282	neural sequence to sequence
0.2858539112	based adversarial attacks
0.2858436797	differentiable local
0.2858335076	synthetic and real world datasets demonstrate
0.2858262415	deep learning classification
0.2858124557	= = = = =
0.2858034765	exploration method
0.2858017167	mechanistic models
0.2857846666	establish non asymptotic
0.2857550143	led to
0.2857070693	consists of
0.2857062549	simulations and real
0.2857028438	bounds provide
0.2856569938	best suited
0.2856456639	network module
0.2856431168	model likelihood
0.2856412901	ability to detect
0.2856351369	fast algorithm
0.2855555875	sampling for bayesian
0.2855545546	the roc curve
0.2855295432	data sampling
0.2855075369	$ denotes
0.2854781828	two key ideas
0.2854572870	clinical information
0.2854523187	multiple images
0.2854459641	non convex problems
0.2854290412	previous data
0.2854245240	numerical data
0.2854111068	multi objective reinforcement
0.2854088832	dependencies between
0.2853870585	the vast majority
0.2853718499	belongs to
0.2853387060	online user
0.2853280681	task clustering
0.2853019037	transfer methods
0.2852971961	learning based systems
0.2852924560	general formulation
0.2852848787	approximate local
0.2852556321	departure from
0.2852099901	performing model
0.2851456876	proposed model achieves
0.2851448302	network weight
0.2851032211	pca algorithms
0.2850946616	important practical
0.2850767934	demonstrated superior
0.2850644458	\ mathcal s
0.2849225241	burn in
0.2849208199	real world datasets show
0.2849107347	efficient representation
0.2848806741	capable of identifying
0.2848449413	underlying theory
0.2847631956	neural network loss
0.2847596901	aim to address
0.2847566968	deduced from
0.2847491264	closely related to
0.2847266751	complexity result
0.2847147041	a deep reinforcement learning approach
0.2846882491	practical machine learning
0.2846830077	uci machine
0.2846820919	computer generated
0.2846682802	unknown signal
0.2846538257	types of cancer
0.2846301242	meaningful information
0.2846130870	global loss
0.2846130870	achieves low
0.2846089464	ways to measure
0.2845780861	feature model
0.2845627517	control benchmarks
0.2845489010	geometric rate
0.2845048849	vector analysis
0.2844688154	obtained by applying
0.2843240172	rapid increase
0.2843066005	rich enough
0.2842609020	_ k
0.2842565702	framework based
0.2842517915	multiple measurement
0.2841842275	world scenarios
0.2841795757	function approach
0.2841719964	effective representation
0.2841662827	heuristics based
0.2841590302	unlabeled learning
0.2841583172	bayesian graph
0.2841503495	difficult to apply
0.2841102091	non orthogonal
0.2840959563	practical approach
0.2840638747	experiments on simulated data
0.2840561301	scalable gaussian
0.2840493514	illustrated through
0.2840444497	linear time algorithm
0.2840223217	direct policy
0.2839689916	order information
0.2839664821	computation time
0.2839628708	offered by
0.2839407584	second contribution
0.2839004412	recent advances in neural
0.2838423236	algorithms suffer
0.2838382323	real clinical
0.2838308823	task of generating
0.2838177152	real world large scale
0.2837887174	large scale neural
0.2837435504	experiments on two real world
0.2837378822	pca method
0.2837011057	learning joint
0.2836968516	obtain similar
0.2836945261	pca algorithm
0.2836881946	one dimensional
0.2836808817	learning to learn
0.2836565207	into consideration
0.2836067177	learn robust
0.2835628735	based iterative
0.2835577629	large samples
0.2834779690	learning from positive and unlabeled data
0.2834420717	time spent
0.2834368435	order methods
0.2833208129	carlo algorithms
0.2833056791	standard quadratic
0.2832695720	unsupervised image
0.2832548202	@ k
0.2832513442	\ log t
0.2832044165	online bayesian
0.2831599449	adhere to
0.2831472290	groundwork for
0.2831380631	level sentiment
0.2831196099	term load
0.2830875928	online learning to rank
0.2830402586	bayesian kernel
0.2829854274	private algorithm
0.2829697838	properties including
0.2829594078	end to end neural
0.2829541321	bias introduced
0.2829366289	4 5
0.2829364528	a long short term memory
0.2829159848	wise error
0.2828764589	compared to existing approaches
0.2828709305	experiments on real world datasets demonstrate
0.2828696420	improve convergence
0.2828190746	learn low dimensional
0.2828128194	state of art methods
0.2827982358	$ \ omega
0.2827415311	proposed method yields
0.2827091844	reduced memory
0.2826649670	general linear
0.2826198001	learning dynamic
0.2826168109	reasonably good
0.2826018388	longer than
0.2826016609	optimal adversarial
0.2825914091	assumptions about
0.2825728204	diverse data
0.2825387196	spite of
0.2825237088	optimal sample
0.2825033018	h ^
0.2824782101	depending only on
0.2824274081	operating system
0.2824128779	polynomial dependence
0.2823466083	extracted from
0.2823333722	problem structure
0.2822896177	modeling multi
0.2822754279	learning researchers
0.2822634119	drawn from
0.2822480786	ai system
0.2822381997	central problem in machine
0.2822201243	focus on
0.2822167924	linear modeling
0.2821951613	small training
0.2821923468	turned into
0.2821781286	variational lower
0.2821529952	rate estimation
0.2821460973	wasserstein gradient
0.2821223944	empirical application
0.2820843732	bayesian image
0.2820283582	bound shows
0.2820269950	non smooth functions
0.2820268501	shared feature
0.2819740553	time and memory
0.2819339292	naive application of
0.2819266384	developed methods
0.2819055769	activity recognition using
0.2818794652	a deeper understanding
0.2818768662	\ in \ mathbb
0.2818600216	introducing additional
0.2818569010	robust to adversarial attacks
0.2817919325	essential tool
0.2817179584	optimal neural network
0.2817175200	an axiomatic
0.2817083424	analysis methods
0.2816780792	unbounded loss
0.2816533773	feedback model
0.2816397257	seek to learn
0.2816363168	transportation system
0.2816332839	the log partition function
0.2816226670	algorithm achieving
0.2816204477	continuous gradient
0.2815756601	offline reinforcement
0.2815703857	^ p
0.2815282186	particularly appealing
0.2815156037	shed light on
0.2814461537	groups of nodes
0.2814415896	discrete graphical
0.2814350554	confidence bound based
0.2814240810	end to end deep learning
0.2814157701	involves learning
0.2812607669	directly model
0.2812571085	free framework
0.2812440983	divided into three
0.2812177589	dimensional statistics
0.2811863709	neural text
0.2811741521	algorithm offers
0.2811538577	\ boldsymbol x
0.2811277038	based learning algorithm
0.2810698798	part of speech
0.2810487362	point in time
0.2810198620	priori information
0.2809665240	accelerate learning
0.2809358817	a deep reinforcement learning
0.2809341132	number of nodes
0.2809199089	faster learning
0.2808936543	a major role
0.2808793681	learning based model
0.2808321536	small amounts of
0.2808110462	efficient block
0.2807806660	network performs
0.2807752621	networks with rectified linear
0.2807712311	selection approach
0.2807696221	generate higher
0.2807382288	additionally propose
0.2807222627	designed to capture
0.2806908470	area of machine learning
0.2806498213	method matches
0.2806078788	finite sample analysis for
0.2806020902	key feature
0.2805797991	based feature
0.2805784608	performing classification
0.2805565975	in natural language processing
0.2805462093	intuition about
0.2805428630	a sliding window
0.2805241431	all local minima
0.2805033296	extremely sensitive to
0.2805000027	interactions between
0.2804225244	optimization program
0.2804206236	lead to
0.2804035519	expressivity of deep
0.2803845823	$ \ ell_q
0.2803698853	model free deep reinforcement
0.2803524585	r ^ m \ times
0.2802550412	learning workloads
0.2802376578	significant speed up
0.2802317938	space embedding
0.2802167381	task of predicting
0.2801604755	out cross validation
0.2801358661	dynamic nature
0.2801335817	simulation studies and real
0.2801331164	optimisation algorithm
0.2801242064	arising in machine learning
0.2800934456	proposed method significantly outperforms
0.2800379539	social good
0.2800052166	without ground truth
0.2799732860	non normalized
0.2799616494	conditional label
0.2799311566	unnormalized models
0.2799141074	$ fold cross validation
0.2799041412	learning personalized
0.2798567659	learning discriminative
0.2798179602	design optimization
0.2798071567	a reinforcement learning approach
0.2797588556	model includes
0.2797129708	discrete hidden
0.2796634794	out of distribution detection
0.2796381947	easily applied
0.2796342992	single vector
0.2796310380	survival time
0.2796002944	achieve near optimal
0.2795660306	handful of
0.2795443498	issues regarding
0.2795426262	learning research
0.2794952037	regularized deep
0.2794750911	fast and easy
0.2794272752	generative approach
0.2794174949	proposed schemes
0.2793982958	space representation
0.2793628470	specific embeddings
0.2793310036	pieces of information
0.2793210480	process mixture model
0.2793140307	field inference
0.2792998834	number of measurements
0.2792864678	efficient dynamic
0.2792615153	time aware
0.2792534543	scalable algorithm
0.2792369040	detailed understanding
0.2792294586	study proposes
0.2792144038	effective strategy
0.2791752888	rate tuning
0.2791671273	prior work
0.2791456988	\ boldsymbol \ beta
0.2791147538	small amounts
0.2791121279	parametric learning
0.2791068461	yield high
0.2790645149	a deep learning network
0.2790554851	approach takes
0.2790330379	leads to improved performance
0.2790256186	hybrid neural
0.2790181240	supervised model
0.2790133442	classification process
0.2790025816	leveraging deep
0.2789926772	nas method
0.2789861164	an improved
0.2789752035	subset \ mathbb r ^ d
0.2789689110	stochastic state
0.2788996004	value decomposition
0.2788557475	speech recognition system
0.2787954653	brings together
0.2787804553	aims to predict
0.2787520699	a hybrid approach
0.2787263298	noisy time series
0.2786689313	unified objective
0.2786594746	dictated by
0.2786482958	adversarial online
0.2786480485	current graph
0.2786410836	efficient evaluation
0.2786156931	distributed training of deep
0.2785849159	d_ \
0.2785711060	non concave
0.2785160849	standard deep learning
0.2784962337	maximization framework
0.2784892311	iteration algorithm
0.2784580260	scalable deep
0.2784503920	represent complex
0.2784254345	reduction algorithm
0.2783829966	squares regression problem
0.2783787870	segmentation based
0.2783351740	dimensional data analysis
0.2782992919	conventional deep
0.2782890522	focused on developing
0.2782856853	single type
0.2782004103	efficient robust
0.2781897998	metric to measure
0.2781726205	m ^ 1
0.2781672639	divergences between
0.2781661409	stochastic gradient markov chain
0.2780910707	toy example
0.2780846826	automatic learning
0.2780627181	an optimal policy
0.2779485107	selection tasks
0.2779354433	likelihood approach
0.2778853733	hold in practice
0.2778820788	online methods
0.2776936316	learning higher order
0.2776534910	directed sampling
0.2776336152	approximation results
0.2776256453	\ ln \ frac
0.2776092575	reduce memory
0.2775612107	^ \ text th
0.2775566787	estimation approaches
0.2774929221	order selection
0.2774673489	estimating multiple
0.2774587051	experiments on three real world
0.2774498998	aim to reduce
0.2774465298	sets including
0.2773627592	positively correlated with
0.2773595144	based test
0.2772778628	descent phenomenon
0.2772727221	\ in 0,1
0.2772556562	synthetic and real datasets demonstrate
0.2772513187	many real world problems
0.2771993717	previous method
0.2771906877	both synthetic and real world datasets
0.2771906236	deep probabilistic models
0.2770718590	environmental changes
0.2770581673	an automated
0.2769875362	great empirical
0.2769390288	important to understand
0.2769018208	maintaining low
0.2768888659	as special cases
0.2768009154	dimensional graphical
0.2767941544	deep models
0.2767750510	training tasks
0.2767679321	specific model
0.2767598557	constrained neural
0.2767334826	per sample
0.2766902794	optimization model
0.2766312427	approach consistently
0.2765684024	real time prediction
0.2765541791	\ mathbf w
0.2765302217	methods for solving
0.2764980656	contrary to
0.2764658163	mnist data set
0.2764589830	efficient methods
0.2764033210	knowledge about
0.2763942227	learn domain invariant
0.2763933309	old classes
0.2763930067	output regression
0.2763718373	improved analysis
0.2763602318	lasso algorithm
0.2763163201	lies at
0.2763143108	over fitting
0.2763021588	generative learning
0.2762898037	using long short term
0.2762272443	learned neural
0.2762189780	metrics including
0.2761843853	multiple domain
0.2761764040	limited computing
0.2761631956	adversarial neural network
0.2761371880	the last two decades
0.2761330854	theoretic measures
0.2760911652	generalize existing
0.2760680826	features from raw
0.2760396779	progress in machine learning
0.2760288215	tree models
0.2760229691	non convex optimization problem
0.2760000730	r ^ n
0.2759674552	fidelity data
0.2759434352	data driven discovery of
0.2759154836	handle high dimensional
0.2758986535	cost per
0.2758146258	experiments on synthetic and real datasets
0.2757052607	large scale regression
0.2756690993	two player
0.2756585165	flurry of
0.2756155175	based sequence
0.2756129317	\ log ^ 2
0.2755929200	adversarial feature
0.2755699247	prediction energy
0.2755239591	further investigation
0.2755048575	simulated and experimental
0.2754992444	bf x
0.2754915719	\ underline l
0.2754730636	\ log n
0.2754354577	modeling problems
0.2754041740	bayesian optimization algorithm
0.2753966418	first and second order
0.2753793907	mutual information between
0.2753689087	as sparse linear combinations
0.2753625310	cause of death
0.2753349003	number of observations
0.2753212479	multiple training
0.2752815439	n ^ \ frac
0.2752754784	variational inference based
0.2752463136	semi supervised learning framework
0.2752220144	robust metric
0.2751649154	translate into
0.2751030874	across domains
0.2750994213	spline kernel
0.2750913555	c ^ 1
0.2750849280	learning platform
0.2749958065	such as gender or race
0.2749668245	general nonconvex
0.2749600717	facilitated by
0.2749596801	more powerful
0.2749547049	measure of similarity
0.2749539384	discussion about
0.2749187437	case based
0.2749041464	true latent
0.2748797175	quantity of interest
0.2748732838	model errors
0.2748598953	compression framework
0.2748549469	prediction based
0.2748428791	v ^
0.2748405306	constrained systems
0.2748340365	data fit
0.2748180120	$ f_1
0.2747992021	challenging research
0.2747919212	sparse canonical correlation
0.2747477675	the evidence lower bound
0.2747265980	discrepancies between
0.2747149265	huge amounts of
0.2747146472	based optimization method
0.2747035224	compared with traditional
0.2746977727	\ sqrt n
0.2746778231	distributed nature
0.2746731847	observed in practice
0.2746665762	success of deep neural networks
0.2745914973	leverage multiple
0.2745869683	\ mathcal c
0.2745808022	variational expectation
0.2745627795	built on top of
0.2745517042	value estimates
0.2745466047	training machine learning
0.2745408687	estimate uncertainty
0.2745195537	an adaptive learning rate
0.2744884300	held out data
0.2744249774	agent reinforcement learning
0.2744048851	proposed metric
0.2743987565	radically different
0.2743943258	learning model based
0.2743750784	denoted as
0.2743619424	compared to traditional
0.2742988917	complex real
0.2742550938	quality inference
0.2742035112	non greedy
0.2741918231	networks with piecewise linear
0.2741715973	four real world datasets
0.2741522253	the past two decades
0.2741167561	data labels
0.2740815212	outperforms strong
0.2740310218	a unified view
0.2739788479	\ sqrt \ epsilon
0.2739499109	under consideration
0.2739454718	chi ^ 2
0.2739354868	number of features
0.2738925218	networks achieve
0.2738820883	1 and 2
0.2738707097	m estimator
0.2738280477	knowledge gained
0.2737944339	a union of low dimensional
0.2736872686	method for finding
0.2736799476	training recurrent
0.2736650010	mean opinion
0.2736163904	multiple types of
0.2736022371	lower variance than
0.2735403515	learning bayesian network
0.2735016852	three phase
0.2734934936	valued time series
0.2734819193	$ \ hat
0.2734685066	learning algorithm called
0.2734649504	limitations of current
0.2734264982	divided into two
0.2734094708	in high energy physics
0.2734072259	robust representation
0.2733963137	classical data
0.2733811692	effective methods
0.2733690247	much fewer
0.2733687177	well accepted
0.2733656148	block models
0.2733499265	bounded adversarial
0.2732569360	improve predictions
0.2732046547	this dissertation
0.2731550734	more accurate
0.2731493116	classical learning
0.2731094738	a promising avenue
0.2730855365	at least
0.2730676829	cost model
0.2730632577	run experiments
0.2730220156	individual input
0.2729641008	gaussian data
0.2729505727	$ \ ell_ 2
0.2728805337	equivalent to maximizing
0.2728105677	^ m
0.2727546242	not well understood
0.2727377883	special class
0.2726273302	sparse stochastic
0.2726094339	large network
0.2726088150	studies demonstrate
0.2725980046	^ \ rm
0.2725618142	present numerical experiments
0.2725245414	attention based model
0.2724801242	helps to improve
0.2724730332	neural network structure
0.2724687343	aware deep
0.2724611115	averaging method
0.2724339185	regression classifier
0.2724088112	paper tackles
0.2723919245	inspired by recent
0.2723603317	small number of samples
0.2722889614	bayesian matrix
0.2722670784	robust algorithms
0.2722248689	more sophisticated
0.2721849622	descent based
0.2721708568	k modes
0.2721496020	clustering applications
0.2721476196	finite sample analysis of
0.2721208537	existing model
0.2721177750	\ mathbb e _
0.2720164998	cov 2
0.2718982958	optimal local
0.2718389191	solve such problems
0.2718181820	estimator and show
0.2718178512	this article
0.2717257333	require human
0.2716765228	learning high dimensional
0.2716477613	this short note
0.2716107049	apply machine learning
0.2715805312	leveraging recent
0.2715705984	valuable information about
0.2715271503	svhn datasets
0.2715258352	original training
0.2714237446	learn generative
0.2714234914	consistent learning
0.2714016807	i vector
0.2713898573	features extracted from
0.2713860986	simulated and real world datasets
0.2713514368	3d object
0.2713331652	bayesian reinforcement
0.2713031776	based policy optimization
0.2712874753	reinforcement learning approaches
0.2712374312	simulations and real world
0.2712325049	resulting architecture
0.2712154891	less expensive
0.2712148841	performance depends
0.2711980997	high dimensional tasks
0.2711487446	latent random
0.2711228416	$ \ mathcal o \ left
0.2710956583	world problems
0.2710814406	scale machine
0.2710441307	efficient adaptive
0.2710334718	alternating direction method of
0.2709905435	$ \ alpha
0.2709902575	developing machine
0.2709887646	benchmark for evaluating
0.2709809490	computer programs
0.2709563409	an open challenge
0.2709108926	carlo techniques
0.2708718170	plenty of
0.2708618592	concerned with
0.2708220156	simple cases
0.2708165362	\ beta_
0.2707919758	number of particles
0.2707466373	algorithms for constructing
0.2707309866	a bayesian perspective
0.2707253999	algorithm for finding
0.2707237139	multiple algorithms
0.2707006068	time and frequency
0.2706408157	linear combinations of
0.2706363366	capable of learning
0.2706143130	proposed method works
0.2705956349	graph information
0.2705864212	benchmark algorithms
0.2704980095	processing and computer vision
0.2704830974	training mechanism
0.2704070080	a handful
0.2703941749	based applications
0.2703934034	data model
0.2703048680	rate of change
0.2702915744	statistics based
0.2702901990	aims to recover
0.2702817328	an analytically tractable
0.2702713212	existing feature selection
0.2702637360	significant advantage over
0.2702621821	re training
0.2702399719	using privileged information
0.2702233762	last but not least
0.2701893461	theoretic techniques
0.2701222947	efficient parameter
0.2701184742	performs similarly to
0.2701112766	unified manner
0.2700884622	achieves improved
0.2700715548	without retraining
0.2700571710	problems in science and engineering
0.2700058448	proposed metrics
0.2699630423	an open issue
0.2699268108	much weaker
0.2699055849	trained teacher
0.2698997782	fixed number
0.2698677285	private empirical
0.2698434194	term forecasts
0.2698314981	broader set
0.2698281207	non convex and non smooth
0.2698243935	extensive analysis
0.2698170541	required data
0.2697968281	derived from
0.2697813985	\ theta ^ *
0.2696936584	in lieu
0.2696766183	learning causal
0.2696737089	good generalization performance
0.2696328511	considerable interest
0.2696250084	_2 ^
0.2696166211	acts as
0.2696004543	analysis applies
0.2695921278	the fisher information matrix
0.2695780483	wide margin
0.2695571153	stronger than
0.2695553658	standard neural
0.2695157219	supervised method
0.2694824495	via deep reinforcement learning
0.2694670192	variational method
0.2694611510	traditional data
0.2694423874	least squares regression problem
0.2694145360	exploit structure
0.2694088677	initial data
0.2694081749	size required
0.2694048317	batch bayesian
0.2694040402	optimal rates of convergence
0.2692896354	a reinforcement learning agent
0.2692808579	developed in recent years
0.2692745094	general function
0.2692677090	off policy policy
0.2692551600	varying levels
0.2692522641	poor local
0.2692298769	data values
0.2691955184	achieve state of
0.2691727993	significantly smaller than
0.2691675341	an information theoretic framework
0.2691654195	model type
0.2691470501	non adversarial
0.2691254575	to escape saddle
0.2691237287	optimal adaptive
0.2690909555	non iterative
0.2690860462	adaptive density
0.2690744536	without imposing
0.2690723105	learning latent variable
0.2689662631	non symmetric
0.2689514582	important theoretical
0.2689362009	larger batch
0.2689182823	quickly adapt to
0.2687748811	a big challenge
0.2687457359	passes over
0.2687456773	prediction systems
0.2686913174	local methods
0.2686439010	^ +
0.2686438606	efficient probabilistic
0.2686416584	linear dimension
0.2685874710	tree based models
0.2685748741	input gradient
0.2685278869	recent neural
0.2685140918	time delayed
0.2685067403	methods developed
0.2684866915	\ boldsymbol y
0.2684631721	compared to
0.2684442722	wang et
0.2684397013	comparison with existing
0.2683699235	relies only on
0.2683650639	diverse collection
0.2683626153	infinite number
0.2683113106	\ to \ infty
0.2683111829	\ leq \ epsilon
0.2682808835	learning networks
0.2682664449	increasing number
0.2682614499	generate natural
0.2682586109	potentially lead
0.2682442872	full gp
0.2682387304	capable of
0.2682324328	performance significantly
0.2682198980	including computer vision
0.2682175381	high levels
0.2681983472	capable of solving
0.2681663918	bayesian optimization algorithms
0.2681636151	detection dataset
0.2681612703	scale data
0.2681029750	standard optimization
0.2680139160	amounts of data
0.2679572444	based encoder decoder
0.2679472091	efficient kernel
0.2679386749	squares estimator
0.2679383842	approach substantially
0.2679292665	current paper
0.2679129020	validation performance
0.2679103525	distributed random
0.2678512189	optimal value function
0.2678270924	^ n
0.2678165310	paper reports
0.2678057032	online feature
0.2677872732	required to achieve
0.2677470129	$ l_
0.2676889734	information theoretic lower bounds on
0.2676100540	a game theoretic
0.2675944422	computational lower
0.2675619084	hard in general
0.2675609019	method introduces
0.2675413522	process state space models
0.2675142152	each timestep
0.2675092059	the true posterior
0.2674691194	uniform error
0.2674477791	\ tilde o
0.2674447190	algorithms for solving
0.2673721399	private admm
0.2673261307	based compression
0.2673220004	finite number
0.2672975227	= 1 ^
0.2672860055	order feature
0.2672428792	existing unsupervised
0.2672293673	learning binary
0.2672209879	conventional supervised
0.2671466653	lead to overfitting
0.2671248773	the hierarchical dirichlet process
0.2670994701	predictions obtained
0.2670926079	approximate linear
0.2670548470	ability to solve
0.2670524712	an optimal transport
0.2670490851	deployment of machine learning
0.2670490592	non canonical
0.2670171975	simple approach
0.2669698182	intelligence systems
0.2669661940	$ w_2
0.2669633630	outperforms recent
0.2669509487	to date
0.2669490766	data obtained
0.2669376889	needed in order
0.2669157273	gaussian variational
0.2668583962	efficient multi
0.2668482977	non lipschitz
0.2668215429	n + \ sqrt
0.2667978263	p = 2
0.2667908290	existing tasks
0.2667678041	existing cnn
0.2667220643	found at https
0.2667045366	extensive experiments on synthetic
0.2666529873	a geometric perspective
0.2665595755	detection based
0.2665012491	ability to quantify
0.2664692251	stochastic mirror
0.2664338838	per iteration complexity
0.2664297573	both synthetic and real data
0.2664066585	d ^ 3
0.2663820201	real time processing
0.2663594487	transferring knowledge from
0.2663485616	highly depends
0.2663385026	compared to existing
0.2663344937	every time step
0.2663274183	extraction tasks
0.2662504655	brand new
0.2662481828	relaxed version of
0.2662289331	time domain
0.2662276247	predictive value
0.2662256306	formulated as
0.2662136439	common random
0.2661181657	using markov chain monte carlo
0.2661176175	learning mixed
0.2661102213	regression techniques
0.2660771871	dimensional classification
0.2660632674	advanced deep
0.2660498695	\ overline
0.2660451386	self adaptation
0.2660276451	a major challenge
0.2660136441	near optimal policy
0.2660034539	without affecting
0.2659940446	based reinforcement
0.2659800521	non additive
0.2659749945	thousands of nodes
0.2659720250	$ \ epsilon
0.2659307850	learning convolutional
0.2659082229	aims at improving
0.2659026908	represent data
0.2658745048	real vector
0.2658742920	the baum welch algorithm
0.2658383220	previously known
0.2658212139	prior to training
0.2657943110	designed to learn
0.2657879856	variational bayesian inference for
0.2657711668	distributed gradient
0.2657182816	polynomial time approximation
0.2656907601	exactly equal
0.2656808148	dimensional inference
0.2656655703	precision training
0.2656452481	$ p_0
0.2656381341	generating model
0.2656372576	compared to standard
0.2656071516	supported by numerical
0.2655935683	price data
0.2655882727	paper analyzes
0.2655475910	first order and second order
0.2654970658	local interpretable
0.2654496111	shallow ones
0.2654440785	t test
0.2653526824	causal feature
0.2652932285	generalizes better than
0.2652650428	does not hold
0.2652520230	real world datasets and show
0.2652257147	paper focuses
0.2652173555	p ^ *
0.2651718062	areas including
0.2651647118	convex learning problems
0.2651348776	little attention
0.2651247310	refer to
0.2650911124	\ mathbb r ^
0.2650798198	processing step
0.2650399036	artificial and real world data
0.2649771900	pca methods
0.2648999105	hard to obtain
0.2648988363	neural networks to learn
0.2648640803	represented as
0.2648562104	hinges on
0.2648336118	very deep networks
0.2647927267	\ operatorname
0.2647003538	tractable model
0.2646224791	performance compared
0.2645503482	new insights
0.2645498695	\ frac12
0.2645485786	distributed method
0.2645364263	deep anomaly
0.2645268863	approaches rely
0.2644977505	sub goal
0.2644824411	derive regret
0.2644345515	promising approaches
0.2644221755	while enjoying
0.2643621967	theoretical model
0.2643576061	followed by
0.2643304181	log \ left
0.2642375651	popular cnn
0.2642349383	existing pruning
0.2642269129	likelihood learning
0.2642121006	capable of performing
0.2642112993	adoption of deep learning
0.2642018345	networks and deep learning
0.2641855348	the extended kalman filter
0.2641700744	problem based
0.2641506752	treated as
0.2641108968	neural networks exhibit
0.2640725918	$ th
0.2640582370	x_i ^
0.2640520146	points based
0.2640378134	maintaining accuracy
0.2640287245	interested in
0.2640236924	sensitive datasets
0.2640112561	recurrent neural network based
0.2639465163	escaping from
0.2639083825	obtain high
0.2639049014	practical data
0.2639018916	adaptive batch
0.2638966190	discriminative models
0.2638921696	underlying cost
0.2638919005	_ i
0.2637651369	framework applies
0.2637636467	no bad local
0.2637510240	sub optimality
0.2637146846	r ^ p
0.2637024873	including classification
0.2636863836	specific objective
0.2636562572	learning benchmarks
0.2636330715	understanding neural
0.2636284055	plagued by
0.2635802882	processing technique
0.2635437936	transformer models
0.2635141880	three real world datasets
0.2635081653	accuracy on cifar 10
0.2634999351	consistent adversarial
0.2634777494	\ to 0
0.2634618176	a large scale study
0.2633935320	control domains
0.2633696821	derive lower
0.2633236027	this paper introduces
0.2632694588	\ in \ mathcal
0.2632547737	learned embedding
0.2632315091	metric to evaluate
0.2632027549	algorithm shows
0.2631996337	current model
0.2631663638	accuracies comparable to
0.2631401369	cover problem
0.2631331155	d dimensional
0.2631214617	extensive experiments on
0.2630984194	accurate model
0.2630621808	called robust
0.2630183079	$ s_
0.2629852117	truth label
0.2629704306	faster than competing
0.2629695682	sum optimization
0.2629405614	varying degrees of
0.2629091995	optimal regularization
0.2628997293	design parameters
0.2628618133	functional principal
0.2628288118	optimal predictive
0.2627661374	operates directly on
0.2627405685	data remains
0.2626778412	r ^ 2
0.2626757759	$ l ^ 1
0.2626755569	\ mathcal x
0.2626612370	domain data
0.2625944773	architecture based
0.2625723277	deep reinforcement learning for
0.2625498695	\ mu_0
0.2625469492	function estimates
0.2625466689	general probabilistic
0.2625425722	interested in finding
0.2625349124	generalize across
0.2625262915	reinforcement learning technique
0.2625233587	higher than
0.2625139595	application of machine learning
0.2625121469	true model
0.2624538286	conventional classification
0.2624411796	proposed ensemble
0.2623857277	allocation problem
0.2623535408	algorithm enables
0.2623403344	much less
0.2623183357	an undirected graph
0.2623110282	algorithm iteratively
0.2623088127	trained by minimizing
0.2623081354	semi supervised manner
0.2622998982	\ min
0.2622921192	growing number
0.2622455674	graph space
0.2622383897	second stage
0.2621683003	based on
0.2621682101	computer vision and natural
0.2621668238	reduction problem
0.2621618073	aims to
0.2620959564	computer vision and natural language
0.2620882575	valued random
0.2620837333	standard convolutional
0.2620734958	exemplified by
0.2620727551	in recent years
0.2620556116	an auto encoder
0.2620310125	required to learn
0.2620086346	anomaly detection using
0.2619066835	free graphs
0.2618770687	an extended version
0.2618681692	nonlinear networks
0.2618618261	needed to learn
0.2617467442	perform feature
0.2617358038	demonstrated on synthetic
0.2617313355	compared to previous
0.2617213688	robust adversarial
0.2617137465	training of deep neural
0.2616994687	change over time
0.2616396954	very little
0.2616299566	framework for solving
0.2616091596	graph size
0.2616026771	measurements obtained
0.2615852052	efficient method
0.2615748452	non negligible
0.2615722516	require access
0.2615332709	quadratic control
0.2615070679	obtain competitive
0.2614796977	sample testing
0.2614581067	speedup compared
0.2613990488	intelligence based
0.2613541230	time steps
0.2613243607	good generalisation
0.2612424870	factorization approach
0.2612128186	task in machine learning
0.2611964825	a deep generative model
0.2611879840	existing reinforcement
0.2611876713	available at \ url https
0.2611666213	online multi
0.2611587938	reasonably well
0.2611203321	this paper
0.2611120071	one bit compressed
0.2610998320	competitive results compared
0.2610708248	proposed in recent years
0.2610569137	detection model
0.2610026506	closed form expression for
0.2609627973	unknown probability
0.2609351987	achieve improved
0.2609102201	difficult to understand
0.2609015644	datasets such as mnist
0.2608982906	3d object detection
0.2608883863	driven data
0.2608678407	general algorithm
0.2608396977	provide simple
0.2608327206	stem from
0.2608314129	reminiscent of
0.2608028362	t f
0.2607809442	lead to suboptimal
0.2607745807	provide analytical
0.2607196249	traffic dataset
0.2606997314	without violating
0.2606886633	number of passes
0.2606760793	compared with existing
0.2606114997	high value
0.2606045001	modeling high
0.2605076023	obtained by combining
0.2604853603	leave one
0.2604694787	train data
0.2604586305	required to obtain
0.2604403023	some open problems
0.2603538526	matching algorithms
0.2603135937	generalization results
0.2603083129	ability to incorporate
0.2602835168	ensemble models
0.2602414844	switches between
0.2601945280	approach significantly
0.2601677697	+ \ frac
0.2601597142	\ tilde \ omega
0.2601475491	performs significantly better than
0.2601247310	proportional to
0.2601241843	learning effective
0.2601088588	based semi supervised
0.2601009263	model variables
0.2600314718	methods tend
0.2600199016	non equilibrium
0.2599998013	an interactive
0.2599765507	attention based models
0.2599592573	insight about
0.2599290333	deep transfer learning for
0.2599179145	& e
0.2598858944	trained to minimize
0.2598706075	\ ll d
0.2598304075	frank wolfe algorithm for
0.2598179332	machine translation system
0.2598075931	supervised domain
0.2597508094	logit models
0.2597461894	bayesian personalized
0.2597414204	ratio based
0.2597148801	large collections of
0.2596983950	$ \ ell ^ 1
0.2596936218	per year
0.2596713275	entire data
0.2596503720	thousands of
0.2596365514	fast adversarial
0.2596254525	massive number
0.2596112226	svm algorithm
0.2595089968	data domains
0.2595064271	estimation model
0.2594861531	distribution inputs
0.2594825532	difficult to solve
0.2594396433	a matching lower bound
0.2594206059	+ \ lambda
0.2594008821	important topic
0.2593917422	recently proposed deep
0.2593517801	set of parameters
0.2593425184	control methods
0.2593320180	other parties
0.2593069085	$ \ ell_
0.2592966131	a logarithmic factor
0.2592735929	using deep reinforcement learning
0.2591555378	$ \ tilde o \ left
0.2590980291	$ \ widetilde o
0.2590547669	large neural
0.2590245201	total number
0.2590210756	type method
0.2590161042	class data
0.2590095921	algorithm aims
0.2589916616	the stochastic block model
0.2589829404	standard approach
0.2589551515	correlation among
0.2588735010	the present paper
0.2588683065	necessary and sufficient conditions
0.2588618394	works well
0.2588331741	two stream
0.2588060467	significantly lower than
0.2588000664	does not
0.2587747305	solve large
0.2587644179	linear features
0.2586692785	fueled by
0.2586520072	a hybrid
0.2585901691	a graph neural network
0.2585081540	thought of as
0.2585024542	method for detecting
0.2584928445	interactions among
0.2584864653	training convergence
0.2584741767	prior based
0.2584671190	walks on graphs
0.2584619018	space time
0.2584551266	dealing with high dimensional
0.2584542736	a deep learning model
0.2584494583	convolutional deep neural
0.2584410455	per instance
0.2584037027	far less
0.2583918577	analysis requires
0.2583824453	space and time
0.2583716478	computer vision community
0.2583712775	the proposed method
0.2583355425	experiments carried
0.2583114977	control performance
0.2583103164	rl approach
0.2582926110	scalable approach
0.2582596382	1 + \ alpha
0.2582514053	provide significant
0.2582163671	network inputs
0.2581581908	structured input
0.2581315367	fundamental step
0.2581292321	do not necessarily
0.2581087335	learning feature
0.2580866472	compared against
0.2580340828	a low dimensional manifold
0.2580241191	fundamental trade off between
0.2580169083	batch methods
0.2579935890	proposed measure
0.2579850005	while preserving
0.2579740876	real world text
0.2579701013	studies validate
0.2579567769	of sample extension
0.2579461259	learning regime
0.2579377586	kappa =
0.2579343199	conquer approach
0.2578938081	relationships between variables
0.2578898188	computer experiments
0.2578547537	samples drawn from
0.2578429842	probability functions
0.2578325744	centered at
0.2578256065	ahead of time
0.2576966092	meta learning based
0.2576950387	hard to learn
0.2576917966	a plethora
0.2576602213	a key challenge
0.2576560043	algorithm compares
0.2576442107	one versus
0.2575965186	based on minimizing
0.2575518682	sub gradient
0.2575318980	representation based
0.2575228771	returned by
0.2574829310	resulted in
0.2574547277	world data
0.2574482161	grouped into
0.2574431028	unbiased stochastic
0.2574351546	each node's
0.2574305666	order to adapt
0.2573984359	dual system
0.2573559058	individual feature
0.2572765997	shot learning setting
0.2572764052	significant changes
0.2572507464	number of samples needed
0.2572253816	a semi parametric
0.2572203016	\ _ i = 1 ^
0.2571933663	network learned
0.2571845121	recent success of deep
0.2571787092	one pixel
0.2571634115	parametric models
0.2571294831	designed to facilitate
0.2571269087	comprehensive study
0.2571194107	shift problem
0.2570633333	target parameter
0.2570589237	computer vision applications
0.2570566280	full information
0.2570156944	optimization problems in machine learning
0.2569391836	demonstrated state
0.2569081398	simple and powerful
0.2568846481	approaches to clustering
0.2568376636	convolutional gaussian
0.2568236144	the art baselines
0.2568182566	real time applications
0.2567659066	framework for learning
0.2567553021	an empirical bayes
0.2567274911	seen classes
0.2567249225	using machine learning techniques
0.2566651045	minimal number
0.2566625012	click models
0.2566593465	flow models
0.2566562103	binomial process
0.2566530641	e ^
0.2566330506	language processing techniques
0.2566275895	nonlinear state
0.2565712164	phone data
0.2565585017	physics informed deep
0.2565537671	m ^ 2
0.2565484019	demonstrate superior
0.2565222819	implicit models
0.2564529404	a deep residual network
0.2564440157	embedding models
0.2563872126	discrete latent variable models
0.2563834365	space approach
0.2563820357	regression datasets
0.2563127194	comprised of
0.2563020839	word prediction
0.2562583913	regularized empirical
0.2562525501	probabilistic linear
0.2562397920	\ unicode
0.2562066861	each node
0.2562050052	lack of interpretability
0.2561951394	non redundant
0.2561749382	time span
0.2561732604	many real world graphs
0.2561719768	structured prediction models
0.2561668377	important application
0.2561650504	perform better
0.2561391096	bound depends
0.2561227640	an inexact
0.2560840931	convolutional neural networks trained
0.2560462182	signal data
0.2559655704	experiments on real world data
0.2559171209	training observations
0.2559015894	datasets and show
0.2558489066	rl training
0.2557806552	designed to minimize
0.2556996559	applications ranging from
0.2556253868	improves upon existing
0.2556203929	$ x_0
0.2556190695	adaptive method
0.2555971318	reinforcement learning method
0.2555817018	recent advances in machine learning
0.2555801938	a great deal of attention
0.2554562435	kernel hilbert
0.2554419381	settings including
0.2554170661	problem dimensions
0.2554106460	examples demonstrate
0.2553683277	obtained by solving
0.2553526261	shown to exhibit
0.2553022808	provide convergence
0.2552805610	data drift
0.2552758335	label image
0.2552547566	$ dimensional subspace
0.2552203816	nearly matches
0.2552115720	analytic expressions for
0.2552077478	q iteration
0.2550387418	distance between
0.2550368541	optimal model
0.2549545441	\ mathbb e
0.2549452665	task of identifying
0.2549370961	shown to improve
0.2549310012	generalization to new
0.2549134529	on mobile devices
0.2549055250	applying machine learning to
0.2548668258	issue by proposing
0.2548201894	across groups
0.2548170855	simple problems
0.2548138230	data based
0.2547056981	required sample
0.2547050636	a unified framework
0.2546952075	growing body of work
0.2546795427	deeper understanding
0.2546043476	deeper understanding of
0.2545400543	this manuscript
0.2545113246	compared with existing methods
0.2545053134	supervised algorithms
0.2544707856	actual data
0.2544586195	conform to
0.2544468657	method for selecting
0.2543950026	increasing amounts of
0.2543735380	large ensemble
0.2543162360	learning hidden
0.2542925138	view learning
0.2542849022	value based reinforcement learning
0.2542789344	paper defines
0.2542725586	two main contributions
0.2542380632	multiple time steps
0.2542283687	short time
0.2541392006	detailed information about
0.2541171955	main theoretical
0.2540935658	comparable or even better
0.2540866989	the two algorithms
0.2540458966	performing bayesian
0.2540134746	small enough
0.2539455724	real data set
0.2539426376	positive side
0.2539407688	original algorithm
0.2539350536	lower bounded by
0.2539113793	two stage framework
0.2539033882	before and after
0.2538746843	studied problem
0.2538482975	highly dependent on
0.2538278081	originally designed for
0.2538126233	extensive experimental results on
0.2537818385	layer neural network
0.2537120183	inverse optimal
0.2536988800	achieving state of
0.2536660224	the precision recall curve
0.2536269946	generalization error bounds for
0.2535918172	partly due
0.2535787109	undirected models
0.2535664851	previous sparse
0.2535172432	significantly outperforms state of
0.2534903656	\ ln n
0.2534676022	common task
0.2534122758	order model
0.2534098050	forecasting models
0.2533624776	ensembles of neural networks
0.2533429291	second order convergence
0.2532929327	completion algorithms
0.2532837443	term memory networks
0.2532401344	local geometric
0.2532298437	arises in many applications
0.2532215632	approximated by
0.2532174672	each datapoint
0.2532071658	unsupervised learning algorithm
0.2532043275	levels of noise
0.2531834833	experimental results on
0.2531776080	the two problems
0.2531628137	sub manifolds
0.2531219029	selection in high dimensional
0.2530809336	multi view matrix
0.2530459132	expressed as
0.2530436247	during training
0.2530356803	gradient based algorithm
0.2530050960	a neural network architecture
0.2529124979	no regret learning
0.2528931035	a neural network model
0.2528000664	do not
0.2527519675	layer based
0.2527293755	typically suffer
0.2526812252	gap between
0.2526701931	sample complexity lower
0.2526152707	modeled as
0.2526026176	framework for studying
0.2525889633	learning tree
0.2525428104	increasing volume of
0.2525411292	existence of adversarial examples
0.2525054309	toward understanding
0.2524832880	rank regression
0.2524741640	this thesis
0.2524734027	two layer
0.2524731754	based on long short term memory
0.2524403426	\ sigma ^ 1
0.2524381028	online version
0.2524266071	simultaneous model
0.2524079455	risk bounds for
0.2523458972	both synthetic data and real
0.2523351679	aim at
0.2523238768	$ \ lambda
0.2522686936	time varying networks
0.2522659838	without forgetting
0.2522547739	type 1
0.2522359283	method increases
0.2522212708	non technical
0.2522094588	$ a \ in \ mathbb
0.2521948687	nonparametric independence
0.2521808950	the proposed method outperforms
0.2521499547	lstm neural
0.2521463549	an attacker
0.2521450176	data embedding
0.2521446660	using machine learning
0.2521266466	performs significantly better
0.2521054019	less informative
0.2520939797	apart from
0.2520328694	obtained by
0.2520264696	mining applications
0.2519950625	objective evaluation
0.2519814659	previous graph
0.2519755878	the two graphs
0.2518743074	supervised learning based
0.2518612602	outperform random
0.2518048402	hard parameter
0.2518040219	many to many
0.2517799354	par or better
0.2516977791	\ subset \ mathbb r ^
0.2516954154	framework improves
0.2516837994	enormous amount of
0.2516837876	learning of neural networks
0.2516678036	sum of smooth
0.2516618551	conjunction with
0.2516484481	benefit from
0.2516416289	mean and covariance
0.2516328694	generated by
0.2515753131	convex optimization algorithm
0.2515751529	advantages over
0.2515109943	box variational inference
0.2514881134	effective model
0.2514455773	networks with relu
0.2514043633	intrinsic data
0.2513990404	evidenced by
0.2513817881	proposed attack
0.2513810123	$ \ tilde o
0.2513742178	supposed to
0.2513568166	a deep learning method
0.2513523185	size requirement
0.2513353766	robust to overfitting
0.2512890966	learning to search
0.2512805008	networks perform
0.2512577480	$ h_
0.2512487472	time series anomaly
0.2512359088	sub linear
0.2512240553	time and space
0.2512229614	open source implementation of
0.2511996804	learning method called
0.2511832609	based learning algorithms
0.2511635012	sample distributions
0.2511242364	\ gamma_
0.2509989603	finite sample properties of
0.2509940095	existing supervised
0.2509790883	a low dimensional space
0.2509246859	demonstrate strong
0.2509107745	key problems
0.2509098169	leveraging knowledge
0.2508945991	pca problem
0.2508444978	the mnist data set
0.2508308790	prior knowledge into
0.2507686789	one to many
0.2507635887	learning in deep neural networks
0.2507363613	n ^
0.2506820476	learning predictive
0.2506735699	model design
0.2506046675	examples of such
0.2505773633	local objective
0.2505287441	self representation
0.2504557432	opposed to
0.2504396239	simple and fast
0.2503561758	model to misclassify
0.2503540034	training time
0.2503475214	one to one
0.2502894050	training size
0.2502469168	gives rise to
0.2502459764	downstream machine learning
0.2502415545	powerful machine learning
0.2502391096	rate depends
0.2502187572	problem of learning
0.2502094969	derive upper bounds on
0.2501842626	learned networks
0.2501748338	variable models
0.2499979753	class examples
0.2499696382	of two terms
0.2499600869	machine learning problem
0.2499380851	lead to significant
0.2499158490	detection using deep
0.2498995195	power of deep neural networks
0.2498733200	$ \ mathcal o
0.2498672414	active deep
0.2497981562	stage 2
0.2497781619	true value function
0.2497567646	simple but effective
0.2497332967	sparse deep
0.2497120183	exponential linear
0.2496987429	based strategy
0.2496726334	a fair comparison
0.2496639491	ln t
0.2496329189	matrix estimator
0.2496317716	non convex losses
0.2496292370	output codes
0.2495841047	billions of
0.2495788680	a biologically inspired
0.2495680412	learning solutions
0.2495269702	small subset
0.2494659604	large number of parameters
0.2494470473	multiple binary
0.2494455964	model makes
0.2494224435	carlo estimation
0.2494175475	improvement over
0.2493659936	interpretable model agnostic
0.2493630563	real world decision making
0.2493320404	number of clients
0.2493238768	$ \ beta
0.2492810314	present extensive experiments
0.2492768919	achieved state of
0.2492764117	achieves good performance
0.2492494687	perform better than
0.2492364307	$ p \ gg n
0.2492255878	the given model
0.2492097135	response theory
0.2492006414	better or comparable
0.2491541853	fast methods
0.2490535249	$ \ pm
0.2490532729	based loss
0.2490455479	this paper develops
0.2490425171	richer class of
0.2490206422	attempt to improve
0.2490111635	more expressive
0.2490050861	general methodology
0.2490032645	provide guarantees
0.2489454555	certain circumstances
0.2489374755	single graph
0.2489271179	policy directly
0.2488740400	$ n \ gg
0.2488576734	overlap between
0.2488237714	each client
0.2487776491	\ sqrt \ kappa
0.2487581167	grows exponentially with
0.2487329369	optimal rate of convergence
0.2487300724	one epoch
0.2486918505	aims to solve
0.2486653177	event time
0.2486623528	a data driven method
0.2486610273	numerous real world
0.2486099251	measure of uncertainty
0.2486067154	projection methods
0.2485589019	a semi supervised
0.2485490834	train dnns
0.2485173857	acting as
0.2484738520	experiments indicate
0.2484612630	convergence of gradient descent
0.2484471649	thanks to
0.2484417160	\ beta ^ *
0.2484193796	geometric properties of
0.2483965094	three decades
0.2483758177	sufficient conditions under
0.2483617161	sqrt t
0.2483541721	the indian buffet process
0.2483438940	primary interest
0.2483412554	robust to adversarial examples
0.2483316299	method for optimizing
0.2482706215	comparison results
0.2482645550	broad class of
0.2482589640	almost optimal
0.2482327328	capable of improving
0.2482227477	give rise to
0.2482213866	detection of out of distribution
0.2481977965	derive closed
0.2481958159	analysis model
0.2481929067	driven deep
0.2481832555	small number of
0.2481766613	an optimistic
0.2481488224	programming framework
0.2481189871	theoretical and empirical analysis
0.2480894725	well connected
0.2480796909	correlations between features
0.2480683711	$ \ eta
0.2480650724	correlation between
0.2480156027	implicit bias of gradient
0.2480112028	complex non linear
0.2479399650	software system
0.2479296013	family distribution
0.2478917387	sample guarantees
0.2478895951	method for inferring
0.2478661239	the united states
0.2478567154	successful methods
0.2477945232	world graph
0.2477763939	called `
0.2477736850	capturing long
0.2477721784	probabilistic method
0.2477573825	extraction methods
0.2477456072	forecasting based
0.2476841029	conforms to
0.2476738781	\ kappa_
0.2476696249	presented to demonstrate
0.2476575345	multitude of
0.2476178509	vision and machine learning
0.2475985774	non bayesian
0.2475984551	continuous time stochastic
0.2475739224	far behind
0.2475649942	the gumbel softmax
0.2474950625	independent gaussian
0.2474714120	success of convolutional neural
0.2474663070	this technical report
0.2474505291	faced with
0.2474490612	m ^ \ star
0.2474131976	qualitatively different
0.2473505062	t ^
0.2473339081	scale clustering
0.2472855198	accounting for
0.2472738776	significantly less
0.2471742655	a low dimensional subspace
0.2471592858	a fast implementation
0.2471479926	faster to train
0.2471380781	local stochastic
0.2470648995	deep learning neural
0.2470458631	data demonstrate
0.2470051236	significantly larger than
0.2469397543	as soon as
0.2469055543	optimizing deep neural
0.2468900428	a closer look at
0.2468808796	by introducing
0.2468788554	q networks
0.2468479251	matrix completion under
0.2468322604	non adaptive
0.2468116182	$ \ tilde \ mathcal o
0.2468093102	conducive to
0.2467494026	agent to learn
0.2467445476	learning conditional
0.2467139275	while achieving comparable
0.2466265470	existing clustering
0.2466026780	common methods
0.2465591937	number of vertices
0.2465131377	time and cost
0.2465034809	learning signal
0.2464658001	the large hadron collider
0.2464654993	each arm
0.2464624736	convex regularized
0.2464594888	an integrated
0.2464011442	challenge in machine learning
0.2463822333	the best expert
0.2463642934	first order optimality
0.2463397998	data increases
0.2463351427	based analysis
0.2463069978	complex black
0.2462774103	leads to higher
0.2462616322	approach of using
0.2462394857	effective approach
0.2462373273	an inductive bias
0.2462073220	made publicly available
0.2461952628	independent interest
0.2461740834	unknown environment
0.2461532620	new research directions
0.2461370955	$ dimensional euclidean space
0.2461321711	difficult to learn
0.2461261412	suffered by
0.2461236071	this paper revisits
0.2461026115	\ log ^ 3
0.2460484019	algorithm generalizes
0.2460449003	based meta learning
0.2459755878	models from data
0.2459004060	a deep neural network based
0.2458763383	a block coordinate descent
0.2458743568	capable of predicting
0.2458401241	traditional neural networks
0.2458367974	2 bit
0.2458342801	millions of
0.2458338594	agents to learn
0.2458266797	algorithm for approximating
0.2458146478	black box access to
0.2457892171	computational time
0.2457880613	yet effective
0.2457856602	one to one mapping
0.2457445764	prediction techniques
0.2457098079	equation model
0.2456956852	maximization algorithms
0.2456665492	each episode
0.2456644458	| \ mathcal a |
0.2456459926	develop methods
0.2456181904	deep neural network model
0.2456134043	significantly better than
0.2455657736	end to end autonomous
0.2455331109	source of information
0.2455259965	concentration inequalities for
0.2455145652	an order of magnitude
0.2454919850	label data
0.2454194714	global linear
0.2454124025	tree like
0.2453911042	$ nnc
0.2453484019	developing algorithms
0.2453468386	ability to exploit
0.2453322802	a single gpu
0.2453184634	large relative
0.2453112240	slightly better than
0.2451955888	task parameters
0.2451522054	common latent
0.2451160272	learning algorithms including
0.2450584329	robust networks
0.2450407214	notion of consistency
0.2449515177	multiple causes
0.2448268128	data driven framework
0.2448093484	big challenge
0.2447411988	path algorithm
0.2447367738	draw samples
0.2446891096	box attacks
0.2446864180	a hot research topic
0.2446167212	learning latent variable models
0.2445849870	first price
0.2445590417	mean embeddings
0.2445459565	denoted by
0.2445252765	\ sqrt \ frac
0.2445240553	the two methods
0.2445202809	robust against
0.2444607120	t_ \
0.2444594588	of such data
0.2443757283	consistent generative
0.2443726097	link between
0.2443655821	extensively used
0.2443570473	achieves better performance
0.2443522765	world datasets demonstrate
0.2443390396	for click through rate prediction
0.2443369533	thereby avoiding
0.2443238768	$ \ mathbf
0.2443164969	on new data
0.2443158413	matching upper and lower
0.2443103344	datasets from different domains
0.2442984019	key problem
0.2442975617	large numbers of
0.2441974500	more pronounced
0.2441633154	considerably less
0.2441585282	an essential component
0.2441465632	measured by
0.2441406244	only logarithmically
0.2441058719	one billion
0.2440931109	tends to
0.2440903245	difficult to predict
0.2440589166	perform significantly
0.2440349574	method for estimating
0.2440267258	methods for learning
0.2439876920	classification using
0.2439566775	n =
0.2439468567	estimation of model parameters
0.2439121949	end to end deep
0.2439110019	gained much
0.2438855008	results open
0.2438589545	sensitive to noise
0.2437720340	experimental results on real
0.2437397441	specific constraints
0.2437208731	full batch
0.2436948568	methods employ
0.2436935603	this study proposes
0.2436503720	composed of
0.2435988411	driven methods
0.2435972991	= o
0.2435753757	each bag
0.2435582393	marginal mcmc
0.2435266595	nonlinear decision
0.2435108521	| x
0.2434826322	gamma 0
0.2434477791	\ mathcal o
0.2434154241	analysis based
0.2434128449	parametrized by
0.2433810011	bayesian linear
0.2433410507	sequence to sequence models
0.2433264954	common strategy
0.2432608548	non strongly
0.2432357447	short term memory neural
0.2432347855	performance results
0.2432214774	with linear function approximation
0.2432069097	representations learned by
0.2431687229	lower bounds on
0.2431370194	faster compared
0.2431326164	less explored
0.2430412488	neural networks trained
0.2430357691	simple method
0.2430336716	multi agent system
0.2430110440	lot of research
0.2429773162	in most settings
0.2429547850	focus on developing
0.2428809915	a brief
0.2428766568	time lags
0.2428387402	informative data
0.2428294265	ten times
0.2428205217	images containing
0.2427770693	active learning method
0.2427456988	\ omega \ left
0.2427397771	lee et
0.2427036808	a model based approach
0.2426723151	investigate whether
0.2426631155	inspiration from
0.2426549065	sub problems
0.2426533410	conduct experiments on
0.2426421618	rapid increase in
0.2426279028	learned models
0.2426173979	secure multi
0.2426063585	constrained settings
0.2426022843	individual model
0.2425970841	two real world datasets
0.2425677128	length vector
0.2425505365	many to one
0.2425410439	faster and better
0.2425238776	performs better
0.2424838837	sharper than
0.2424711874	differences among
0.2424445592	convolutional sparse
0.2424137575	bayes framework
0.2424069812	challenged by
0.2423973560	architecture outperforms
0.2423564409	layer linear
0.2423238768	$ \ varepsilon
0.2423173678	datasets reveal
0.2423120868	this article reviews
0.2422839134	proven useful
0.2422817326	_i \
0.2422656770	pre trained on
0.2422222326	k ^ 3
0.2422175362	a hot topic
0.2421836463	number of steps
0.2421591335	number of
0.2421561048	based image
0.2421442712	number of training examples
0.2421164955	this paper describes
0.2421071854	\ _
0.2420924745	powerful paradigm
0.2420628131	order interaction
0.2420311905	little training data
0.2420234544	a black box function
0.2420148859	optimal number of clusters
0.2420141960	classes of functions
0.2419977878	many machine learning problems
0.2419657354	wider range of
0.2419589949	an alternative
0.2419528931	additional experiments
0.2419324212	primarily focus on
0.2419249244	highest mean
0.2419196244	extensive experiments on synthetic and real
0.2418983134	large volumes
0.2418526942	standing problem
0.2417478088	\ mathbf y
0.2417443840	prior algorithms
0.2417429729	data sets and show
0.2416792326	multivariate linear
0.2416525518	learning nonlinear
0.2416523633	maximum inner product
0.2415922615	behavior based
0.2415816612	effect inference
0.2415598573	two extremes
0.2415197227	first order algorithms
0.2414909846	in spite
0.2414909527	nonconvex loss
0.2414747780	balance between accuracy
0.2414726439	convolutional and recurrent neural
0.2414032234	adaptation to new
0.2413918844	theoretical characterization
0.2413797163	compatible with
0.2413728951	this monograph
0.2413408767	doubt on
0.2413393625	presence of unobserved
0.2412950811	injected into
0.2412851415	experimental results on real world
0.2412762759	base learning
0.2412180319	method for solving
0.2412135466	capable of finding
0.2411823842	\ cal m
0.2411772622	a randomized algorithm
0.2411400740	_ n
0.2411375872	developed framework
0.2411239997	factor approximation
0.2410961145	present numerical
0.2410887336	straightforward way
0.2410778966	n step
0.2410465274	much lower
0.2410187569	a single hidden layer
0.2410019281	unlabeled data to improve
0.2410005035	a fully bayesian
0.2409843229	misspecified models
0.2409801444	simpler and more
0.2409795951	performs comparably to
0.2409398520	set of features
0.2409224126	obtained by minimizing
0.2409086476	a supervised learning algorithm
0.2408603611	a neural network
0.2408349906	proposed score
0.2408186737	questions about
0.2407981640	achieved high
0.2407905962	classification using deep
0.2407784522	largely focused on
0.2407066211	representation methods
0.2406999001	n \ log n
0.2406936694	n dimensional
0.2406618247	optimal feedback
0.2406551623	n k
0.2406047840	line of work
0.2405812565	leading to
0.2404986552	significantly improves upon
0.2404896494	inner product search
0.2404739140	general technique
0.2404698288	millions of nodes
0.2404646791	learning and signal processing
0.2404640963	modelling tasks
0.2404524626	accuracy performance
0.2404310326	developed model
0.2404076088	indistinguishable from
0.2403333043	industrial control
0.2403308527	n d
0.2403164595	methods learn
0.2403071659	end to end approach
0.2402508441	anomaly detection based
0.2402477808	on device learning
0.2402408274	interact with
0.2402316936	current machine learning
0.2402192186	early prediction
0.2402079693	presence of outliers
0.2401979496	one step
0.2401823020	sparse covariance
0.2401678336	\ mathbb r ^ m
0.2401587930	conducted to demonstrate
0.2401273963	distribution defined
0.2401077017	an adversary
0.2401030508	easily adapted to
0.2400825825	fixed step
0.2400721158	expressed in terms of
0.2400672170	relatedness between
0.2400639469	classification ability
0.2400505365	on policy and
0.2400458043	a variational auto encoder
0.2400407981	tool in machine learning
0.2400372122	experiments on cifar 10
0.2400164816	do not know
0.2400089620	improves learning
0.2399746377	classification experiments
0.2399596145	model works
0.2399414319	matrix completion with
0.2399346310	\ sc
0.2399332535	solving classification
0.2398121516	analysis method
0.2397397771	yang et
0.2397380910	clustering network
0.2397353029	compare favorably with
0.2397321867	learning directed
0.2397166120	direct access to
0.2397094588	to novel tasks
0.2397082726	evaluation on real world
0.2396951059	responsible for
0.2396679715	capture latent
0.2396500976	\ |
0.2395977327	temporal datasets
0.2395199451	received much
0.2395071032	dynamic time
0.2394517838	minimum number
0.2394360689	graph generative models
0.2394347341	time period
0.2394003720	attempt to
0.2393912406	computed exactly
0.2393896817	difficult to scale
0.2393703631	method to estimate
0.2393487550	in two settings
0.2392875402	o \ big
0.2392176317	based sequence to sequence
0.2391856640	accurate approximation
0.2391187356	common model
0.2390991658	network predictions
0.2390003682	minimax optimal up
0.2389928142	two level
0.2389903492	large neural network
0.2389401368	inference based
0.2389315829	the neyman pearson
0.2389196430	subset of features
0.2389110165	modeling method
0.2388656103	the art performance
0.2388309988	number of edges
0.2387937829	full text
0.2387881370	full gradient
0.2387229622	ability to adapt
0.2386946458	indexed by
0.2386576651	with sparse rewards
0.2386453589	a prime example
0.2386349144	synthetic and real world networks
0.2386242746	learning algorithms require
0.2385816612	dense neural
0.2385395984	pre trained generative
0.2385226402	designing neural
0.2384822779	drug like
0.2384621239	proposed formulation
0.2384290031	network based model
0.2383238768	$ \ gamma
0.2383236302	period of time
0.2383168991	extract useful information from
0.2382864984	local optimal
0.2382676114	oracle access to
0.2382327966	optimal classification
0.2382310520	linear relationships
0.2382305250	g =
0.2382131721	applied to
0.2381270543	$ \ pi
0.2381256904	large body of research
0.2380987565	sampling estimator
0.2380871252	short term forecasting of
0.2380844413	challenging to solve
0.2380679034	a hidden markov model
0.2380361904	laplacian based
0.2380329218	specific network
0.2379222533	error distribution
0.2379147460	effective machine
0.2379084680	modeled by
0.2378740400	$ p \ geq
0.2378714388	whole image
0.2378680865	bayesian models
0.2378657466	image information
0.2378334759	black box nature of
0.2378091506	method for learning
0.2377959933	real world machine learning
0.2377272782	generation based
0.2377001667	faster than previous
0.2376780470	temporal graph convolutional
0.2375987105	successful in practice
0.2375668099	to avoid overfitting
0.2375594853	interpretability of machine learning
0.2375552147	number of variables
0.2375542023	optimization of deep neural networks
0.2375436954	based scheme
0.2374003720	vulnerable to
0.2373578375	on imagenet
0.2373499334	sampling framework
0.2373454811	a constant factor
0.2373386454	1 hour
0.2373160285	deep density
0.2373158751	lower bounds for
0.2373106106	the plethora
0.2372861703	double q
0.2372434278	learning implicit
0.2372411825	approximation approach
0.2372359088	time invariant
0.2372147426	accordance with
0.2371973074	promising technique
0.2371757563	end to end solution
0.2371596956	\ mathbb s ^
0.2371361442	important open problem
0.2371336385	leads to substantial
0.2370914051	emerging machine learning
0.2370699088	in such applications
0.2370398598	tree algorithms
0.2370368829	non identically
0.2369936657	while remaining
0.2369843040	value based
0.2369658267	global graph
0.2369308777	consists of two steps
0.2369292441	training requires
0.2368976227	solving multiple
0.2368853518	arise frequently in
0.2368853449	aim to solve
0.2368804375	off policy rl
0.2368005557	made publicly
0.2367896587	\ log \ frac
0.2367876115	an intelligent
0.2367599294	existing regret
0.2367526132	linear case
0.2367446757	existing meta
0.2367415298	set theory
0.2367198245	point iteration
0.2367003544	obtaining high
0.2366869683	\ h o
0.2366616558	time sensitive
0.2366281808	a meta learning framework
0.2366205512	deep q
0.2366120595	continuous time markov
0.2365900974	non linear dynamics
0.2365827806	attack based
0.2365807601	few bits
0.2365689329	goes to zero
0.2365360085	representations of nodes
0.2365351462	pre trained neural network
0.2364940572	user interest
0.2364613350	high robustness
0.2364585152	limited training
0.2364513106	well tuned
0.2364102630	information estimator
0.2363634947	an extended
0.2363573077	transition between
0.2363281231	a long standing
0.2363165584	detection approach
0.2363024617	a bayesian network
0.2362933366	standard stochastic
0.2362814291	more realistic
0.2362532890	predict disease
0.2362441296	supervised settings
0.2362055887	rests on
0.2361848824	datasets consisting
0.2361838378	discrepancy between
0.2361805104	downloaded from
0.2361485766	close to
0.2361006040	existing feature
0.2360975892	lower training
0.2360525778	non convex and non
0.2360505066	$ \ cal o
0.2360484949	against adversarial
0.2360484405	unknown regression
0.2360085225	respect to
0.2359860994	problem of selecting
0.2359770119	general solution
0.2359692781	$ d \ geq
0.2359631053	particularly attractive
0.2359398482	classification data sets
0.2358693939	reduce computational
0.2358586555	linear neural network
0.2358549212	fixed graph
0.2357848641	a comprehensive
0.2357594401	off policy methods
0.2357437130	leibler divergence between
0.2357094588	in one domain
0.2356803182	problem in reinforcement learning
0.2356649200	distribution examples
0.2356581639	algorithm to compute
0.2356491635	generative performance
0.2356319264	reasons behind
0.2356086768	faster than existing
0.2356066041	algorithm parameters
0.2356003374	copula models
0.2355586998	broader class of
0.2355292367	based representation
0.2355060795	particularly challenging
0.2354881753	successes of deep
0.2353734237	the frank wolfe method
0.2353636496	approaches suffer
0.2353609625	this end
0.2353537527	problem of detecting
0.2353165956	algorithm for estimating
0.2353038134	access to
0.2352857802	learn node
0.2352596382	$ \ widetilde \ theta
0.2352549745	agrees with
0.2352473851	optimization function
0.2352382697	$ dimensional
0.2352269159	an encoder decoder architecture
0.2352078505	aim to provide
0.2351961438	based graph
0.2351258095	low rank structure of
0.2351122476	based upon
0.2350975998	scale dataset
0.2350849048	prediction of future
0.2350790787	framework for evaluating
0.2350300263	popular stochastic
0.2349519136	generative model based on
0.2348848032	synthetic and real world data demonstrate
0.2348763633	most notably
0.2348134833	free data
0.2347743207	technique based
0.2347719789	ml models
0.2347508595	different modalities
0.2347259218	with known ground
0.2346904167	data corroborate
0.2346866508	\ mathcal m
0.2346114375	hierarchical models
0.2345671767	an entropic
0.2345413529	large variety
0.2345359359	predicting whether
0.2345144794	existing algorithm
0.2344748559	optimal network
0.2344485556	\ mathcal f
0.2344483613	system dynamics
0.2343941831	leverage deep
0.2343919449	better understand
0.2343710274	provide solutions
0.2343653692	smooth objective
0.2343448915	handled by
0.2343356761	relational models
0.2343352642	presented here
0.2343277252	results comparable
0.2343255818	s ^ 2
0.2343144730	level data
0.2343111380	an asymptotic analysis
0.2342952916	experiments on synthetic
0.2342754522	mean field regime
0.2342558165	based generalization
0.2342430220	problem by introducing
0.2342361880	far away from
0.2342255878	of such networks
0.2342142129	these issues
0.2341806936	perform well
0.2341356218	set of variables
0.2341063059	presence of noise
0.2341046684	training problems
0.2340408782	automatic data
0.2340038878	similarity coefficient
0.2339861973	data illustrate
0.2339703235	collected from
0.2339660208	tool for analyzing
0.2339427756	subset of nodes
0.2338547227	recent developments in
0.2338329527	two major challenges
0.2337938531	subsets of features
0.2337912178	aim to identify
0.2337717513	a survey
0.2337462775	the proposed algorithm
0.2337413518	for such tasks
0.2337019737	order optimization methods
0.2336922586	analysis results
0.2336650880	a privacy preserving
0.2336645912	linear system
0.2336394982	data statistics
0.2336392946	at semeval
0.2335985287	sampled from
0.2335783721	method in two
0.2335289517	convergence performance
0.2335085214	mean field analysis
0.2335039258	\ in \ mathbb r ^
0.2334900108	automatic machine
0.2334684669	experiments provide
0.2334455418	an asymptotically optimal
0.2334327847	faced by
0.2334158260	$ p_
0.2334153325	move beyond
0.2334152431	based online
0.2333520202	existing state of
0.2333413408	magnitude larger than
0.2333215429	$ 0 \ alpha
0.2333164969	new and existing
0.2332956531	sufficient number
0.2332360843	gap between theory and
0.2331903937	conducted to evaluate
0.2331895434	method exhibits
0.2331860540	learning markov
0.2331478127	convex cost
0.2330912098	data application
0.2330814447	most frequent
0.2330799203	cpu time
0.2330535249	\ frac 1
0.2330237309	benchmark and real world
0.2330199647	art method
0.2329831159	multiple regression
0.2329663823	extensive experiments on benchmark
0.2329565972	learning driven
0.2329063449	each neuron
0.2328852402	significant reduction in
0.2328663398	an ablation study
0.2328541265	first place
0.2328458429	hundreds of
0.2328427975	number of trials
0.2327995175	the false discovery rate
0.2326880181	stochastic primal
0.2326572360	semi supervised learning method
0.2326534799	number of nonzero
0.2326435990	separation between
0.2326224027	over complete
0.2326125862	d n
0.2325729472	thereby enabling
0.2325608202	studies focus
0.2325413534	practical problem
0.2324750658	second order statistics
0.2324678749	one hidden layer
0.2324641742	methods for minimizing
0.2324358287	$ m = \ omega
0.2324157548	adversarial training method
0.2323742330	large scale analysis
0.2323636492	explicitly accounts for
0.2323607368	exactly recover
0.2323562101	approach addresses
0.2323436243	sample complexity bounds for
0.2323227188	both synthetic and real datasets
0.2323217704	shown to perform
0.2323094264	low rank model
0.2323061805	unsupervised node
0.2322292381	huge amount
0.2322237540	critic framework
0.2321905187	each layer
0.2321880414	top level
0.2321697908	popular unsupervised
0.2321571613	a deep learning framework
0.2321534132	replaced with
0.2321533053	multi class support
0.2320832107	low intrinsic
0.2320813846	an essential tool
0.2320755947	modeling based
0.2320326682	algorithm to solve
0.2320299980	data with missing values
0.2320138116	clearly outperforms
0.2320101497	method for generating
0.2319684767	important real world
0.2319527855	based inference
0.2319444144	statistical technique
0.2319434522	high probability regret
0.2319248807	black box machine learning
0.2319218499	accounts for
0.2319217876	empirical approach
0.2319213090	popular method
0.2319048659	trained to map
0.2318979230	leads to faster
0.2318767785	model inputs
0.2318524490	$ \ tilde \ omega
0.2318318874	the black box model
0.2317478542	design algorithms
0.2317463015	on chip
0.2317094588	to new data
0.2317045973	explained by
0.2317023686	existing theoretical
0.2316789122	based anomaly
0.2316442420	a multi stage
0.2316007259	successful deep
0.2315877474	\ ll n
0.2315487421	shown great promise in
0.2315450859	leading to faster
0.2315314979	improved model
0.2315163192	defined by
0.2315114928	focus on improving
0.2315100716	old and new
0.2314935854	build on recent
0.2314818873	state networks
0.2314705701	a directed acyclic graph
0.2314680880	originated from
0.2314318251	complex problem
0.2314016180	complex machine learning models
0.2313991564	the cold start problem
0.2313861017	embeddings based
0.2313477726	drop in replacement for
0.2313297857	k 1
0.2313256029	exponential family models
0.2313051686	error upper
0.2312359541	set of entities
0.2311853176	$ \ mathbb
0.2311361683	outperform current
0.2311341982	the intensive care unit
0.2310967194	learn diverse
0.2310398106	directions for future work
0.2310381465	while guaranteeing
0.2310314979	unknown model
0.2310303600	$ \ widetilde
0.2310189905	generalized cross
0.2310143146	including support
0.2310075256	from pairwise comparisons
0.2309789148	training settings
0.2309736620	this article presents
0.2309723653	challenge in reinforcement learning
0.2309512150	near optimal performance
0.2308863257	framework to analyze
0.2308288248	underlying hidden
0.2308282100	policy algorithms
0.2307573405	more reliable
0.2307195927	competitive results compared to
0.2307164079	overparameterized models
0.2307159718	model to predict
0.2306627360	k = 2
0.2306476407	supervised metric
0.2305952198	methods for estimating
0.2305885114	estimation approach
0.2305824133	the information bottleneck
0.2305698646	the high dimensional setting
0.2305691553	the proposed method achieves
0.2305655535	specific methods
0.2305633334	based error
0.2305426881	model prediction
0.2305138263	look into
0.2305016745	single cluster
0.2304790404	alleviated by
0.2304776889	fine tuned on
0.2304609466	linear generalization
0.2304583972	the machine learning community
0.2304324115	low number
0.2304088461	selection approaches
0.2304013551	large search
0.2303868582	$ \ tau
0.2303712775	and other data
0.2303535998	$ nn classifier
0.2303301667	applications ranging
0.2303005560	optimization convergence
0.2302971361	using deep learning
0.2302807182	a simple baseline
0.2302751667	bayesian machine learning
0.2302687746	an entropy based
0.2302673720	linear reward
0.2302346418	sample error bound
0.2302311144	adversarial inverse
0.2301689304	architectures including
0.2301531153	a closed form
0.2301128115	better than
0.2300752130	provide efficient
0.2300396106	binary space
0.2300317283	$ k \ geq
0.2300194783	provide non asymptotic
0.2300165298	sample error
0.2299710642	real world decision
0.2299414150	an end to end
0.2298760709	\ sqrt n \ log
0.2298023185	+ w
0.2297774106	makes use of
0.2297590425	q_ \
0.2297584625	multiple object
0.2297284904	stochastic method
0.2297171181	developed method
0.2297039271	an ordinary differential equation
0.2296279274	detection using
0.2296143119	matching method
0.2296071620	results shed light
0.2296037015	long training
0.2295981294	known and unknown
0.2295696227	matching based
0.2295620780	an approximate solution
0.2295592505	in high dimensional settings
0.2295158211	robust low rank matrix
0.2294930736	a deep learning
0.2294886815	duality between
0.2294844136	ability to identify
0.2294748059	source and target data
0.2294601802	^ 0
0.2294281710	target prediction
0.2293869494	nearly linear
0.2293826027	analysis task
0.2293759044	structured model
0.2292870526	magnitude smaller than
0.2292756510	a semidefinite program
0.2292355714	linear interactions
0.2292121230	the last decade
0.2292089419	sgd methods
0.2291933003	small amounts of data
0.2291906819	continuous time bayesian
0.2291585794	dimensional distribution
0.2291543925	difficult to achieve
0.2291072631	standard single
0.2291044149	generative model based
0.2290937563	unknown reward
0.2290600606	proposed sampling
0.2290545290	the variational auto encoder
0.2290444651	$ \ kappa
0.2290158179	task of classifying
0.2290154581	efficient learning algorithm
0.2289934133	existing spectral
0.2289932387	time scales
0.2289591601	neural information
0.2289093191	an unsupervised machine learning
0.2288702498	on riemannian manifolds
0.2288636258	training generative adversarial
0.2288577516	robustness to adversarial
0.2288469462	significant difference between
0.2288370900	most importantly
0.2288282110	quasi newton methods for
0.2288036748	observed random
0.2287774413	feature selection using
0.2287357371	\ sqrt \ log
0.2287325817	self attention based
0.2287302533	least absolute shrinkage and selection
0.2287265763	a central server
0.2287203016	^ 3 \ varepsilon ^
0.2287100922	fewer parameters than
0.2286809501	based embedding
0.2286489972	a bayesian
0.2286483314	much larger than
0.2286100261	analysis problems
0.2285582041	mapping between
0.2285414999	policy data
0.2285183192	requires large
0.2285147115	$ \ ell_ 1
0.2284653923	sufficient conditions for
0.2284626416	a single pass
0.2284506907	time consuming and expensive
0.2284246611	contextual bandit problem with
0.2284134975	signal to distortion
0.2283941025	validation based
0.2283683111	simple yet effective method
0.2283495166	union of low dimensional
0.2283374954	application of deep learning
0.2283330664	large number of classes
0.2283301956	few shot learning tasks
0.2283180862	numerical experiments indicate
0.2282995188	showing significant
0.2282920816	classified into
0.2282676889	practical deep
0.2282516672	some cases
0.2282369264	single global
0.2282192230	\ chi
0.2282007776	first order optimization
0.2281999673	combines deep
0.2281694485	problem of inferring
0.2281631083	applications demonstrate
0.2281487074	estimator outperforms
0.2281407208	with expert advice
0.2281247631	non gaussian acyclic
0.2281143852	based detection
0.2281143607	\ ell_ \ infty
0.2281070346	online algorithms for
0.2280990021	by proposing
0.2280956685	network systems
0.2280821800	compares favourably with
0.2280438226	arbitrary graph
0.2280151073	magnitude only
0.2280062034	approximate algorithm
0.2280037275	fast to compute
0.2280035856	motivated by recent
0.2279800232	methods enable
0.2279656582	corroborated by
0.2279558116	aims to develop
0.2279531951	bottleneck method
0.2279290867	number of arms
0.2279130817	algorithm significantly
0.2279107108	recent approach
0.2278990093	a computationally efficient method
0.2278974924	learning invariant
0.2278961581	approach compared
0.2278885556	\ mathcal d
0.2278780735	approach for learning
0.2278514930	graphs generated
0.2278404145	\ | x \ |
0.2278283017	non stationary time series
0.2278235280	learn new tasks
0.2278220727	superior performance over
0.2277848075	regularized least
0.2277375373	large scale gaussian
0.2277230732	low rank matrix from
0.2277038911	gradient hamiltonian
0.2276786060	classify images
0.2276706298	model obtained
0.2276700690	space spanned by
0.2276690978	an urgent need
0.2276561096	computer security
0.2276430532	bounded above
0.2276419577	domain adaptation aims to
0.2276409394	less than
0.2276383010	performance for different
0.2276326340	adaptation framework
0.2276045363	general class
0.2275801269	under certain assumptions
0.2275434881	provide lower
0.2275271629	varies across
0.2275263740	single neural network
0.2274917640	rid of
0.2274806410	the decision maker
0.2274712406	3d facial
0.2274630253	media data
0.2274621866	the proposed approach
0.2274604380	hidden layer neural network
0.2274503440	an increasingly important role
0.2274255162	level of accuracy
0.2274162640	including data
0.2273859049	synthetic and real data demonstrate
0.2273497645	base models
0.2273056031	layer lstm
0.2272943786	until recently
0.2272697217	variational algorithms
0.2272686759	a tight lower bound
0.2272359541	set of arms
0.2272028181	r ^
0.2271877532	good predictive performance
0.2271865718	super resolution using
0.2271771672	training environment
0.2271586632	make accurate predictions
0.2271455250	exploration in reinforcement
0.2271386533	contributes to
0.2271010076	regularized algorithms
0.2270528899	faster than standard
0.2270431551	convergence of sgd
0.2270423006	network applications
0.2270160619	number of agents
0.2269678671	this issue
0.2269392852	continuous input
0.2269230868	data spaces
0.2269202506	1 t
0.2269007900	\ hat \ boldsymbol x ^
0.2268841151	sub linearly
0.2268592698	crafted features
0.2268541689	concern about
0.2268265962	not uncommon
0.2267529512	simple parametric
0.2267347621	based procedure
0.2267118296	significantly better
0.2266985210	goal of improving
0.2266971123	proposed tensor
0.2266702740	tend to perform
0.2266701654	obtained from
0.2266524798	method developed
0.2266490603	algorithms scale
0.2266388319	a conceptual framework
0.2266071644	a convex formulation
0.2265950531	family of estimators
0.2265689262	computational method
0.2265619456	unsupervised framework
0.2265190444	fast linear
0.2265163192	achieved by
0.2265094312	hold with high
0.2265045491	provide general
0.2264928310	compare favorably to
0.2264895905	called graph
0.2264482289	the fast gradient sign
0.2264481330	multi information
0.2264461254	l ^ \ infty
0.2264233008	coupling between
0.2264106121	learned directly
0.2263203352	techniques provide
0.2263154951	field limit
0.2262953730	confidence intervals for
0.2262853663	out of domain
0.2262658366	deviations from
0.2262160041	known beforehand
0.2261738426	quality dataset
0.2261678774	coincide with
0.2261643678	art attacks
0.2261604285	publicly available online
0.2261343231	process state
0.2261009063	added value
0.2260971459	network requires
0.2260919090	the art approaches
0.2260524183	similarity between
0.2260078990	intuitive understanding of
0.2259991895	based spectral
0.2259235969	information measure
0.2259230723	rely only on
0.2258907311	aims to estimate
0.2258610241	this paper explores
0.2258479620	analysis algorithms
0.2257806998	\ mathbf v
0.2257749162	integrative analysis of
0.2257007366	information from multiple
0.2256891896	achieves significantly better
0.2256861534	good empirical performance
0.2256847868	challenges in machine learning
0.2256738291	non speech
0.2256579408	to detect anomalies
0.2256472704	time dependency
0.2256147367	x and y
0.2256095067	experiments on real
0.2256008035	provide high
0.2255515413	much effort
0.2255403657	k d
0.2255309052	recommender models
0.2255199014	traditional neural
0.2254810705	number of workers
0.2254763992	an empirical
0.2254688556	deep policy
0.2254629966	perform multiple
0.2254034834	this paper considers
0.2253615219	adding new
0.2253335418	algorithms provide
0.2253277728	provide interpretable
0.2253199088	for such data
0.2252982192	computer vision and machine
0.2252833554	based fairness
0.2252772928	current training
0.2252723051	a theoretically grounded
0.2252226807	attention in recent
0.2252152996	reduction approaches
0.2251906629	neural networks perform
0.2251898975	training domain
0.2251782222	a small portion
0.2251562989	based constraints
0.2251527265	feature value
0.2251483314	much smaller than
0.2251470784	rich family of
0.2251468086	popular deep
0.2251396755	label problems
0.2251270565	more than half
0.2250895365	step approach
0.2250822800	a unifying
0.2250616933	text dependent
0.2250295561	traditional training
0.2250279852	single set
0.2250203075	a general purpose
0.2250037512	partitioning based
0.2250010739	training image
0.2249816886	encode prior
0.2249592203	n m
0.2249524813	one by one
0.2249381250	differ from
0.2249129837	vary over time
0.2249058593	$ o
0.2248776232	the art results
0.2248772419	based loss function
0.2248388747	a semi supervised setting
0.2248286012	lots of
0.2248035249	$ \ phi
0.2247778874	accuracy on imagenet
0.2247226291	help mitigate
0.2247080193	coding problem
0.2246967678	experiments involving
0.2246445332	optimal estimator
0.2246344526	flow based models
0.2246159860	analysis focuses
0.2245867952	architecture achieves
0.2245732672	non expert
0.2245611241	fitted q
0.2245558721	hypotheses about
0.2245341538	large scale high
0.2245183317	exhibited by
0.2245049112	explicit model
0.2244947639	brain machine
0.2244850375	$ \ tilde
0.2244820006	reduction based
0.2244598662	natural approach
0.2244436193	regression classification
0.2244124139	explicit convergence
0.2243891531	based implementation
0.2243752379	achieve better generalization
0.2243376206	per data point
0.2243204966	trained to classify
0.2243128614	challenges faced by
0.2243060629	more resilient
0.2242998652	nonparametric models
0.2242834789	dimensional time series data
0.2242729859	trained directly
0.2242633863	dataset containing
0.2242447802	more efficient
0.2242410041	several hundred
0.2242372396	linear regression models
0.2242285353	applicable to general
0.2242274758	number of items
0.2241791156	specific prior
0.2241237471	imposed by
0.2240668928	dimensional tasks
0.2240525635	$ nn
0.2240480656	analogous to
0.2240320742	art detection
0.2240114520	still unclear
0.2239789148	learn features
0.2239770119	representation learned
0.2239762534	validation method
0.2239630006	stochastic gradient markov
0.2239624719	scale inference
0.2239479872	a bayesian model
0.2239398080	proposed network
0.2239084680	solved by
0.2239029477	classification system
0.2239009347	proposed regularization
0.2238673846	thus far
0.2238104686	single training
0.2238067321	runs in time
0.2238064637	a convex relaxation
0.2237803897	two step approach
0.2237436267	world settings
0.2237292325	prediction with expert
0.2237200910	per node
0.2237102219	experimental results on synthetic
0.2236932182	nonlinear data
0.2236816049	design new algorithms
0.2236684858	solving large
0.2236683211	posed by
0.2236366256	most existing works
0.2236360342	the main difficulty
0.2236326409	method automatically
0.2235840694	convex stochastic
0.2235549502	method builds
0.2235300651	synthetic data and real world data
0.2235275065	contrarily to
0.2234834913	x_i \ in
0.2234764592	mathematical understanding
0.2234713381	simple function
0.2234479940	free methods
0.2234324359	ability to perform
0.2234273834	real data demonstrate
0.2234173826	policy methods
0.2234139141	provide useful information
0.2233977906	establish conditions under
0.2233902636	common framework
0.2233896922	present theoretical
0.2233800511	well generalized
0.2233763670	efficient off policy
0.2233736593	networks learn
0.2233564609	carlo inference
0.2233333912	means algorithm
0.2233155283	o s r \
0.2232664982	outperforms several state of
0.2232422310	case performance
0.2232032394	hard to compute
0.2231658025	self supervised manner
0.2231590057	solving tasks
0.2231565907	assess whether
0.2231517890	performance on unseen
0.2231264926	\ underline s
0.2231083481	tight bounds on
0.2230727527	top 1 error
0.2230621578	tool for solving
0.2230485855	the one obtained
0.2230218973	a fundamental tool
0.2230062359	well chosen
0.2229956067	network accuracy
0.2229893528	notion of distance
0.2229679405	e _
0.2229586865	the exploration exploitation tradeoff
0.2229551861	method designed
0.2228995977	kinds of
0.2228946371	many real world
0.2228922292	generation techniques
0.2228846758	two way
0.2228823610	k ^ 1
0.2228700100	sampling based algorithm
0.2228603125	step algorithm
0.2228384293	art feature selection
0.2228219744	a simple
0.2227690411	method effectively
0.2227644673	chain monte carlo algorithm
0.2227333905	dissimilarity between
0.2227289613	number of states
0.2226835200	within and across
0.2226257369	simple methods
0.2226215461	h ^ 2
0.2226139175	machine learning system
0.2225491038	sufficient to achieve
0.2225478952	common machine learning
0.2225295270	according to
0.2225155896	including adversarial
0.2224940196	focus on estimating
0.2224628286	the arts
0.2224581277	algorithms for learning
0.2224228291	time and resource
0.2223657093	an ad hoc
0.2222845020	supervised learning method
0.2222540740	provided to validate
0.2222496126	still remains
0.2222217653	algorithms for estimating
0.2222204637	present paper
0.2222131941	three main
0.2221571861	leads to significant
0.2221243132	often violated
0.2221102860	robust results
0.2220965356	neural networks achieve
0.2220786369	gaussian linear
0.2220777408	require training
0.2220707526	growing body of
0.2220538393	1 2
0.2220232291	$ \ varphi
0.2220112831	gaps between
0.2219363143	single dataset
0.2218991800	a posteriori estimation
0.2218835567	including text
0.2218772592	framework for building
0.2218636565	hierarchical approach
0.2218588473	a block diagonal
0.2218545242	classifiers trained on
0.2218424688	simplified model
0.2218268300	classical approach
0.2218049626	input dataset
0.2217961508	few shot image
0.2217628760	augmented neural network
0.2217501004	low dimensional representations of
0.2217179923	proposed to address
0.2216968130	depends only on
0.2216863776	image benchmark
0.2216630162	much tighter
0.2216608106	move towards
0.2216587118	number of data points
0.2216562953	based matrix
0.2216475019	provide improved
0.2216437748	validation methods
0.2216339126	true number
0.2216097782	do not scale well
0.2215808385	theoretical point of view
0.2215770572	sum to one
0.2215725850	a multi objective
0.2215678815	suited to
0.2215614387	does not fit
0.2215387681	healthcare system
0.2215322618	vital role in
0.2215322133	the art competitors
0.2215033525	previous state of
0.2214833069	analysis problem
0.2214803666	learning communities
0.2214750298	act as
0.2214747268	mean embedding
0.2214679064	a viable alternative
0.2214638437	mediated by
0.2214312571	a cardinality constraint
0.2214241438	convex approximation
0.2214137624	function called
0.2214089450	process classifier
0.2213774514	benchmark graph
0.2213499403	criterion based
0.2213471929	method relies
0.2213434889	a small fraction
0.2213320065	building machine learning
0.2213190847	experiments on synthetic and real data
0.2212949437	a nice
0.2212945108	prediction models
0.2212935971	based strategies
0.2212810158	real world machine
0.2212749729	lower bound on
0.2211885110	asymptotic confidence
0.2211871083	key information
0.2211842209	study presents
0.2211656375	thereby providing
0.2211350449	a statistical test
0.2211083595	a pivotal role
0.2210995696	relates to
0.2210878265	deploying deep
0.2210708167	detection of anomalies
0.2210303292	h \
0.2210248015	boost performance
0.2209696382	on different data
0.2209644628	original signal
0.2209583855	this gap by proposing
0.2209004043	require high
0.2208824626	proposed to learn
0.2208784554	supervised learning model
0.2208741578	\ mathcal v
0.2208400774	$ \ nu
0.2207710202	unsupervised and supervised learning
0.2207684222	algorithm for large scale
0.2207555457	memory model
0.2207519068	a machine learning framework
0.2207420840	analysis tool
0.2207368834	on cifar 10
0.2207367829	machine learning approach to
0.2207277230	$ \ sigma
0.2207184904	distributions over functions
0.2207175571	experimental results on multiple
0.2207140497	p = 1
0.2206962255	robust against adversarial
0.2206885708	policy rl
0.2206885352	compared to baselines
0.2206445332	stochastic dynamic
0.2206287750	key results
0.2205906535	a continuous relaxation
0.2205745313	approach to detect
0.2205606568	n body
0.2204808072	= \ mathbf
0.2204685732	a great challenge
0.2204663917	setting and show
0.2204372364	propagated through
0.2204340255	kl divergence between
0.2204089898	results prove
0.2203746913	+ m
0.2203470086	feedback data
0.2203367269	very few
0.2202981784	few shot learning methods
0.2202843903	the bias variance tradeoff
0.2202768908	two phase
0.2202761044	converge to
0.2202645341	improvement upon
0.2202493066	neural networks with random
0.2202354649	at test time
0.2202345391	scalable stochastic
0.2202334691	arise from
0.2202248410	estimating treatment
0.2202045764	pairwise distances between
0.2202025487	a theoretical perspective
0.2201995863	problems demonstrate
0.2201956485	labeled source domain to
0.2201696768	full matrix
0.2201170602	based domain
0.2201055332	methods for generating
0.2200823240	an individual's
0.2200664709	lot of attention
0.2200624137	real world large
0.2200470293	perform joint
0.2200244061	capable of modeling
0.2200192546	high generalization
0.2200188905	served as
0.2200045849	each agent
0.2199651453	data attributes
0.2199608280	dimensional regression
0.2199372279	search approach
0.2199034478	proposed adversarial
0.2198907611	dual algorithm
0.2198897456	management system
0.2198882381	scale data sets
0.2198474445	competitive predictive
0.2198405803	the maximum likelihood estimator
0.2197948832	the stick breaking
0.2197902872	\ | u \ |
0.2197580619	not clear
0.2197207074	set based
0.2197175546	a fast
0.2196894455	simpler than
0.2196847368	robust test
0.2196774490	identify optimal
0.2196544404	this shortcoming
0.2196489820	k armed
0.2196459837	key tool
0.2196142578	regardless of
0.2195925089	automated data
0.2195776591	perform image
0.2195678325	climate models
0.2195452998	improved learning
0.2194983938	every step
0.2194970086	the two data
0.2194909757	synthetic data demonstrate
0.2194862539	practical case
0.2194647407	this research aims
0.2194565426	efficient approaches
0.2194495240	scale information
0.2194277970	neural approaches
0.2194260857	a major limitation
0.2194200810	quality image
0.2194110403	unknown matrix
0.2193699186	class problems
0.2193347498	improvements over
0.2193270139	inferred from
0.2193179416	natural policy
0.2193167486	an incremental
0.2192748257	v |
0.2192293120	before training
0.2192284895	m 1
0.2192259527	series model
0.2191939741	number of components
0.2191574966	bayesian hypothesis
0.2191429552	the expectation maximization
0.2191363186	standard deep neural
0.2191027192	ln ^
0.2191019714	on line
0.2190521258	low rank models
0.2190289867	proposed method achieved
0.2190054525	policy policy
0.2190030104	compared with baseline
0.2190011622	provide examples
0.2189894804	domain features
0.2189602270	online matrix
0.2189475680	large scale deep
0.2189361756	time consuming process
0.2189326865	classical model
0.2189286154	satisfies certain
0.2189045787	training deep learning models
0.2188965931	convolutional neural network model
0.2188938150	risk of overfitting
0.2188797380	close to zero
0.2188699257	face of uncertainty
0.2188418747	variational inference algorithm for
0.2188027901	weighted random
0.2187903178	dimensional sparse
0.2187380487	$ \ boldsymbol
0.2187258709	across scales
0.2187244666	from one domain
0.2186807834	log ^ 2 n
0.2186625712	more complicated
0.2186234163	linear nature
0.2185839540	mathematical models
0.2185666400	an extensive set of experiments
0.2185569008	approaches achieve
0.2185424721	based multi task
0.2185329231	methods for community detection
0.2185235102	x \ | _2
0.2185085225	notion of
0.2184672395	embedded into
0.2183808755	the sliced wasserstein distance
0.2183745076	every node
0.2183727151	experiments on large scale
0.2183438782	seen great
0.2183231708	relationship among
0.2183151556	more elaborate
0.2183135679	robust to adversarial
0.2183107367	performances compared
0.2182907044	$ \ rho
0.2182745198	specific latent
0.2182585245	trained on cifar 10
0.2182387538	proposed loss
0.2182375373	large scale statistical
0.2182071964	an expectation maximization
0.2182026383	99 \
0.2181716254	two and three
0.2181594510	a lot of attention
0.2181549979	vulnerable to small
0.2181514607	size selection
0.2180949326	a special case
0.2180442557	discovery method
0.2180227009	3d pose
0.2180017740	training task
0.2179968950	recent state of
0.2179725939	help understand
0.2179406660	compared with previous
0.2178980089	generalization analysis
0.2178852659	l ^ p
0.2178758516	scale machine learning problems
0.2178715938	based learning methods
0.2178685786	natural extension
0.2178267780	vision domain
0.2177908439	the receiver operating characteristic curve
0.2177789357	lasso model
0.2177528788	a distributed version
0.2177385020	variety of ways
0.2177289093	finally present
0.2177252494	simple yet efficient
0.2177184292	hard to solve
0.2177162804	semi supervised model
0.2176982684	off policy reinforcement
0.2176571047	some extent
0.2176153249	linear activation
0.2175147040	performance level
0.2174875861	\ in \ mathbb n
0.2174840468	rewritten as
0.2174696382	of such methods
0.2174233182	label classifier
0.2174104372	framework for large scale
0.2173785708	approximate policy
0.2173635414	differentially private empirical
0.2173562072	efficient data
0.2173051368	tree methods
0.2173008021	machine learning and computer vision
0.2172751282	generated from
0.2171972854	algorithms called
0.2171716254	within and between
0.2171447398	$ \ mu
0.2171164847	without strong convexity
0.2171117811	neural systems
0.2171019275	not obvious
0.2170958951	at multiple levels
0.2170705263	consistent improvements over
0.2170686176	using convolutional neural networks
0.2170552414	based user
0.2170409941	recent progress in
0.2170284464	large scale empirical
0.2169978788	based object
0.2169742653	via meta learning
0.2169657900	based kernel
0.2169345210	benchmark results
0.2168932502	ideas from
0.2168818925	portion of
0.2168610538	collection of items
0.2168301590	a major concern
0.2168182656	a multi task learning
0.2168179538	task accuracy
0.2168046714	robust linear
0.2167885538	machine learning solutions
0.2167764304	based text
0.2167703871	deep learning community
0.2167512831	= 1 ^ n
0.2167480253	search techniques
0.2167264118	combined with
0.2167214027	attracted much
0.2167205740	a b tests
0.2167202414	concentration bounds for
0.2167020939	\ mathbb r ^ n
0.2166960373	the support vector machine
0.2166741802	satisfy certain
0.2166655632	value estimation
0.2166569759	very short
0.2166486118	non linear transformations
0.2166457402	model distribution
0.2166450142	general properties
0.2166328361	significant decrease in
0.2166311805	a riemannian manifold
0.2165818671	large step
0.2165816238	a communication efficient
0.2165721744	real world multi
0.2165571582	based deep reinforcement
0.2165550373	lead to higher
0.2165497761	approximate optimal
0.2165383426	\ theta ^ \ star
0.2164802806	datasets of different
0.2164538470	2 wasserstein distance
0.2164482350	time intervals
0.2164308617	transferable across
0.2164038419	part i
0.2163553551	sub network
0.2163462692	learning to optimize
0.2163454373	embedding network
0.2163433788	based imitation
0.2163379575	performance gains over
0.2163111087	the fly
0.2162679837	very large
0.2162564911	recognition system
0.2162383809	applied to solve
0.2162319303	perform classification
0.2161946166	an elegant
0.2161637605	bounded below
0.2161543275	practical method
0.2161526279	prove global
0.2161518803	\ geq 1
0.2161117811	deep matrix
0.2160641354	two case studies
0.2160012887	robust reinforcement
0.2159914497	d 1
0.2159871631	direct impact on
0.2159696967	amounts of training data
0.2159656401	versions of
0.2159305528	experiments on benchmark
0.2159026797	n 1
0.2159026206	kernel support
0.2158634824	dnn models
0.2158228730	error bounds for
0.2158183216	algorithm for minimizing
0.2158119869	the negative log likelihood
0.2158039068	b bit
0.2158026191	small number
0.2157511529	mean shift algorithm
0.2157286331	traditional learning
0.2157232278	based on deep neural networks
0.2157060932	$ ary
0.2156935189	works well in practice
0.2156761102	an optimal control
0.2156749042	design efficient
0.2156673693	mining task
0.2156418533	task requires
0.2156413764	level policies
0.2156384434	unlike other
0.2156020805	\ gamma_k
0.2155890726	different frequencies
0.2155509029	applied machine
0.2155352991	existing baseline
0.2155012738	last years
0.2154970086	of new data
0.2154902258	illustrated by
0.2154813899	as good as
0.2154752777	popular in recent years
0.2154395543	dependence on
0.2154257992	multiple hypothesis
0.2153924929	an illustration
0.2153836980	advantages compared
0.2153568655	many machine learning tasks
0.2153347330	prediction using
0.2153224515	$ means
0.2153125460	set of classes
0.2153070624	dataset contains
0.2152895042	convolutional neural network models
0.2152695957	algorithms for large scale
0.2152465679	deep learning based method
0.2152401205	lies in
0.2152377295	over parameterized deep neural networks
0.2152208485	a meta algorithm
0.2152174697	compared to classical
0.2151800566	an integrative
0.2151792165	distribution tasks
0.2151589305	classical linear
0.2151519324	2 3
0.2151252680	subset of variables
0.2150929405	l _
0.2150753045	insensitive to
0.2150590674	based data driven
0.2150563569	based adversarial
0.2150191738	the available training
0.2149997695	space data
0.2149880681	natural way
0.2149818196	r ^ m
0.2149778239	workshop on
0.2149687950	based matching
0.2149347617	seeks to
0.2149219176	highly susceptible to
0.2149107544	supervised few shot
0.2148789497	flow estimation
0.2148786859	outperforming state of
0.2148557651	data covariance
0.2148528164	with abstention
0.2148365729	tens of millions of
0.2148354020	rank kernel
0.2148261835	proposed policy
0.2148061030	in many cases
0.2148002399	dimensional systems
0.2147902652	method proposed
0.2147844552	training quantization
0.2147835396	geometric data
0.2147830291	existing machine
0.2147694569	very simple
0.2147558493	solution method
0.2147555153	based segmentation
0.2147327975	suited for
0.2147208520	effective training
0.2147116873	inference approaches
0.2146839984	methods include
0.2146800232	approach combining
0.2146728751	paper builds
0.2146726943	able to
0.2146418948	$ \ ell
0.2146100434	very large datasets
0.2145992287	seen during training
0.2145767506	current task
0.2145110747	contaminated by
0.2145042353	proposed to solve
0.2145008864	the mondrian process
0.2144935358	a probabilistic model
0.2144795087	$ \ mathit
0.2144522107	training behavior
0.2144202855	world models
0.2144149911	aims to provide
0.2144101843	a single label
0.2144008449	discovery algorithm
0.2143442092	responding to
0.2143394774	scale features
0.2143259290	number of channels
0.2143052955	an iterative algorithm
0.2143043659	traditionally used
0.2143001097	approximate method
0.2142606593	presence of
0.2142502502	$ \ mathcal g
0.2142411897	contingent on
0.2142265351	a large portion
0.2142051965	underlying parameter
0.2141984857	between class
0.2141962840	outperforms current state of
0.2141962775	the proposed model
0.2141887858	linear memory
0.2141827478	for such methods
0.2141791380	method for computing
0.2141597929	relatively mild
0.2141402271	training of deep
0.2141388170	a black box
0.2141219886	data driven machine
0.2141203677	near zero
0.2141170191	the rectified linear unit
0.2140912421	filtering method
0.2140597747	large feature
0.2140447389	widely known
0.2140274309	a tutorial
0.2140246906	evaluation framework for
0.2140089555	sub regions
0.2140072038	multiple real world
0.2139692207	q learning algorithm
0.2139611331	\ textbf l
0.2139404539	\ mathbb z
0.2139272092	incapable of
0.2139220737	non ideal
0.2139164048	presented method
0.2138697062	a generalized
0.2138621530	faster and more
0.2138448148	optimization of deep neural
0.2138422362	experiments using synthetic
0.2138287832	comes at
0.2138269914	method for obtaining
0.2137761042	model consistently
0.2136313612	linear embedding
0.2136112781	k space data
0.2135847135	powerful model
0.2135812249	trained convolutional neural
0.2135148970	time and space complexity
0.2134813326	for extreme multi label
0.2134783511	based approach for
0.2134544384	a generalization error bound
0.2134494742	2 \ eta
0.2134201122	based similarity
0.2134199212	the sample covariance matrix
0.2133991967	study focuses
0.2133855167	stationary data
0.2133839284	lead to sub optimal
0.2133469029	based evaluation
0.2133420379	network policy
0.2133185871	in real world applications
0.2133050937	until convergence
0.2132942790	popular model
0.2132683615	few tens
0.2132225646	network outperforms
0.2131813735	into two parts
0.2131607838	passing neural
0.2131540918	arriving at
0.2131294172	p =
0.2131281156	called \ em
0.2131099492	due to
0.2130909065	translation system
0.2130625591	arbitrarily well
0.2130107359	sparse canonical
0.2129910807	analysis approach
0.2129390716	classification regression
0.2129189251	based alternatives
0.2129029459	provide insight into
0.2128562882	data captured
0.2128237315	based purely on
0.2128081571	heuristic method
0.2127875861	\ max \
0.2127631921	approach to model selection
0.2127411632	in real world scenarios
0.2127277230	$ \ theta
0.2127151301	located at
0.2127007909	analyze stochastic
0.2126825558	challenging open
0.2126762968	detection system
0.2126181344	network loss
0.2125991720	machine learning approaches for
0.2125923690	accuracy results
0.2125840631	latent factors from
0.2125778443	detailed empirical
0.2125732982	non normal
0.2125495800	model consists
0.2125085225	variety of
0.2124966311	data driven machine learning
0.2124879886	variational lower bound on
0.2124845257	existing tensor
0.2124804087	complex machine learning
0.2124340389	world application
0.2124302836	analysis leads
0.2123949658	while ensuring
0.2123888552	networks require
0.2123512990	asymptotically equivalent to
0.2123312148	forward neural network
0.2123198385	called gradient
0.2123068774	the proposed approach outperforms
0.2122574301	general problems
0.2122416701	1 \ sqrt n
0.2122312031	two stage procedure
0.2122173406	network models
0.2122075902	existing analysis
0.2121748875	3d cnns
0.2121730468	unsupervised transfer
0.2121543272	spectral analysis of
0.2121422352	imagenet data
0.2120625146	image feature
0.2120495218	algorithm applied
0.2120470116	two stage approach
0.2120426804	c means
0.2120100232	one neuron
0.2120069189	both in theory
0.2120058861	using random projections
0.2119815584	experiments on simulated and real
0.2119561913	issued from
0.2119558102	a variational bayesian
0.2119324081	with limited training data
0.2119255735	3 d
0.2119228496	\ sqrt t \ log
0.2119175225	critical step
0.2119158182	a wide variety
0.2118985597	of such algorithms
0.2118888340	the ground truth
0.2118823228	of deep neural networks
0.2118623887	increasing demand for
0.2118534583	requiring large
0.2118118331	examine whether
0.2117996733	deep reinforcement learning with
0.2117891135	item based
0.2117579513	challenging machine learning
0.2117502603	modeling problem
0.2117409502	issues related
0.2117358089	reduction approach
0.2117178911	a variational autoencoder
0.2116842209	imaging datasets
0.2116577968	addressed by
0.2116498359	the rnn's
0.2116342363	previous machine
0.2116116177	\ epsilon \ right
0.2116075350	framework to learn
0.2115942468	more fine grained
0.2115902890	whether or not
0.2115617965	deep machine learning
0.2115515202	based objective
0.2115084995	results on synthetic data
0.2114929723	alpha =
0.2114911276	adaptive random
0.2114842079	hard to estimate
0.2114821496	general methods
0.2114675969	models of complex
0.2114621744	design method
0.2114532321	achieves faster
0.2114326077	connected neural network
0.2114276760	algorithms for computing
0.2114113227	relatively low
0.2114015288	neural network architecture for
0.2114010323	decoder model
0.2113887975	based estimation
0.2113685227	a challenging task
0.2113611386	led to significant
0.2112961669	accurate estimation of
0.2112837266	weighted subset
0.2112791106	fewer model
0.2112781638	high signal
0.2112523622	a real data set
0.2112491899	derive upper
0.2112458066	oracle inequalities for
0.2112439228	1 nearest neighbor
0.2112247097	trained machine
0.2112168374	art neural network
0.2112067203	averaging algorithm
0.2111831824	incorporate multiple
0.2111675081	$ f
0.2111542923	amounts of labeled
0.2111296175	non negative least
0.2111220179	propose two algorithms
0.2111181935	predictive entropy
0.2111114313	a black box model
0.2111095384	designed to address
0.2110917637	an unsupervised
0.2110828451	descent optimization
0.2110803591	single representation
0.2110751335	low signal
0.2110690197	measurements required
0.2110662080	theoretical approach
0.2110569114	complex models
0.2109935778	referring to
0.2109594319	existing optimization
0.2109559841	nonparametric variational
0.2109310811	widely used tool
0.2108958686	practical learning
0.2108925514	report experimental
0.2108632065	in high dimensional space
0.2108597092	r \ ll
0.2108038385	representation learning algorithm
0.2107987754	contrast to traditional
0.2107389385	higher performance than
0.2107343359	increasing numbers of
0.2107340218	wide range of real world
0.2107309321	\ hat \ boldsymbol
0.2107154613	absence of
0.2107131377	more complex
0.2106966081	per step
0.2106688338	specific classification
0.2106575461	variety of data sets
0.2106291559	d ^ 1
0.2106291128	extensive theoretical
0.2106216690	an inductive
0.2106201560	maximum number
0.2106160927	a latent variable
0.2105619663	neural image
0.2105570732	an essential step
0.2105288839	approach based
0.2104945659	applicable to
0.2104927008	prediction of traffic
0.2104848011	representation method
0.2104668677	$ a_
0.2104540328	with probability one
0.2103853962	order structure
0.2103578377	sample analysis
0.2103356531	building predictive
0.2103179558	take inspiration from
0.2103173990	theoretical lower
0.2103169853	based topic
0.2102944987	data suggest
0.2102932158	a high dimensional space
0.2102931642	set of points
0.2102865166	optimal regret bounds for
0.2102728340	task setting
0.2102573786	based design
0.2102454904	neighbors algorithm
0.2102413630	secure against
0.2102327082	analysis of high dimensional
0.2102261896	yields significantly
0.2102064203	decision making under
0.2102027556	robust algorithm
0.2101958906	evaluate performance
0.2101804642	high classification
0.2101773803	generalization bounds for
0.2101724976	the reparameterization trick
0.2101397658	the group lasso
0.2101233300	mining process
0.2100978235	expert system
0.2100962046	local algorithm
0.2100840356	proposed optimization
0.2100816846	real network
0.2100682429	world environments
0.2100354800	approach for estimating
0.2100101258	learning requires
0.2099970086	system of linear
0.2099966030	falls into
0.2099866793	network setting
0.2099790902	develop new methods
0.2099581036	semi supervised learning on
0.2099469769	reliant on
0.2099048239	most likely
0.2098926042	common in practice
0.2098910280	1 4
0.2098768525	dimensional low
0.2098702885	data produced
0.2098298489	2 ^ n
0.2098130980	series data sets
0.2098108362	network based methods
0.2097966961	enable learning
0.2097835396	data exhibit
0.2097765176	multiple sparse
0.2097664380	even worse
0.2097518684	for knowledge base completion
0.2097402156	sparse combination
0.2097336520	based dimensionality
0.2097157717	single prediction
0.2097098484	statistical limits
0.2096992975	fast and effective
0.2096743401	order to better understand
0.2096276641	a computationally efficient
0.2096078014	a universal
0.2095960822	required to identify
0.2095483597	convex smooth
0.2095418883	optimal set
0.2095413985	experiments with synthetic
0.2095304509	model assumption
0.2094976699	efficient model
0.2094539819	product state
0.2094427992	a convex surrogate
0.2094099126	$ o \ left
0.2093963945	a general notion
0.2093552624	2d images
0.2093385175	non parametric methods
0.2093365596	non discrimination
0.2093329183	constructed by
0.2093202554	tending to
0.2093111139	solely based on
0.2093004331	number of data samples
0.2092882722	tested on
0.2092825348	challenging learning
0.2092809305	positive definiteness of
0.2092751958	based services
0.2092466550	contextual bandits with
0.2092203604	using deep learning techniques
0.2092132998	simulation results show
0.2091857930	class classifiers
0.2091776537	learning offers
0.2091478868	number of training samples
0.2091390783	policy and value
0.2091089655	based on deep learning
0.2090904474	mining algorithm
0.2090802375	two main challenges
0.2090696235	trained on
0.2090505066	$ \ widetilde \ mathcal o
0.2090227711	subject to
0.2089877139	solve large scale
0.2089530462	learning to play
0.2089369634	do not take into account
0.2089041678	high levels of
0.2089013332	code and models
0.2089004403	millions of users
0.2088580775	an fpga
0.2088355513	improved performance over
0.2088222940	natural generalization
0.2087976598	set of items
0.2087854937	difficult to estimate
0.2087828573	sample prediction
0.2087496410	train convolutional neural
0.2087482489	$ x_1
0.2087448229	optimal rates for
0.2087435390	as well as
0.2087165690	the work of
0.2087128997	= g
0.2086917060	binary neural
0.2086233631	view data
0.2085933629	exponentially many
0.2085929980	an iterative
0.2085856524	on real world datasets
0.2085711824	plug in approach
0.2085700664	portions of
0.2085656757	outperforms other
0.2084874333	variational inference for
0.2084638310	a few hundred
0.2084194047	algorithms for approximating
0.2084155985	stochastic network
0.2084117997	dataset consisting of
0.2083983314	much faster than
0.2083938159	small adversarial
0.2083903974	geometrical properties of
0.2083796019	if and only if
0.2083658472	evaluation algorithms
0.2083623808	currently available
0.2083540161	number of hidden units
0.2083512903	set of objects
0.2083479261	a single
0.2083470364	a gaussian process model
0.2083386405	comprehensive overview of
0.2083199829	take full advantage of
0.2082911150	error based
0.2082852234	training of deep learning
0.2082820037	backward stochastic
0.2082796924	analysis relies
0.2082781726	$ \ cal
0.2082722378	more aggressive
0.2082491022	current data
0.2082051347	a low rank approximation
0.2081963441	learned from data
0.2081493405	fixed model
0.2081449617	underlying low dimensional
0.2081390783	datasets and find
0.2081374882	ode models
0.2081370984	applied to large scale
0.2081230695	one and two
0.2080556557	from electronic health records
0.2080504731	rank linear
0.2080088812	significant impact on
0.2079949261	multiple real
0.2079918835	75 \
0.2079713644	^ 2 \ right
0.2079677334	layers increases
0.2079625548	a priori unknown
0.2079462657	many real world systems
0.2078774477	efficient matrix
0.2078733213	obtains state of
0.2078642764	data from multiple
0.2078405688	expression analysis
0.2078312989	score sampling
0.2078162623	conventional approach
0.2077852982	method aims
0.2077832303	kernel feature
0.2077799737	$ \ mathbf x_0
0.2077467620	nonparametric method
0.2076683182	capable of making
0.2076606639	time complexity
0.2076362887	quality data
0.2076015406	\ bf x
0.2075560221	methods for nonconvex
0.2075534094	delta ^ 2
0.2075330356	algorithm to estimate
0.2075322955	$ n \ geq
0.2075260482	this purpose
0.2074968763	recognition methods
0.2074929462	frequency noise
0.2074208846	experiments on several real world
0.2074013332	methods in various
0.2073700359	conventional learning
0.2073350783	near real time
0.2073268079	simulated data and real data
0.2073100904	train neural networks
0.2073078834	number of samples required
0.2072964287	n \ log
0.2072825218	other hand
0.2072212913	deep learning based models
0.2072052980	optimal convergence rates for
0.2071952838	a real world application
0.2071351534	a closed form expression
0.2070811413	characterization of
0.2070726304	a few seconds
0.2070604127	quadratic time
0.2070591304	on top of
0.2070569192	subset of
0.2069707792	statistical structure
0.2069679457	data confirm
0.2069343826	text independent
0.2069124189	deep reinforcement learning method
0.2069095930	deep boltzmann
0.2068645598	much stronger
0.2068583572	another advantage
0.2068476512	network framework
0.2068382904	next item
0.2068334282	machine learning methods for
0.2068136289	d ^
0.2067996424	learning toolbox
0.2067656535	version of
0.2067228308	achieve promising
0.2067198375	underlying state
0.2066848106	the long short term memory
0.2066784217	the cross entropy loss
0.2066692065	designed to solve
0.2066494923	data scenarios
0.2066006651	a distributionally robust
0.2066002210	concentrate on
0.2065854055	time series datasets
0.2065549868	building on recent
0.2065516161	best achievable
0.2065429490	important problem in machine
0.2065388406	level of sparsity
0.2064903173	tailored to
0.2064725522	m n
0.2064651209	non linearly
0.2064412754	unaffected by
0.2064236762	time frequency domain
0.2063962573	large class
0.2063910609	systems provide
0.2063658003	high prediction
0.2063471293	target image
0.2063359889	similar or better performance
0.2063251873	main reason for
0.2063235583	diagnosis system
0.2063113966	re fitting
0.2062991667	able to detect
0.2062911066	useful insights
0.2062891370	closed form solutions for
0.2062808338	number of model parameters
0.2062740548	cost of computing
0.2062640480	make mistakes
0.2062545823	provide insights into
0.2062453352	tasks require
0.2062164590	networks represent
0.2062064432	provide superior
0.2062028661	one vs
0.2061964878	groups of variables
0.2061872009	specific form
0.2061803626	inference in high dimensional
0.2061749117	outperform state of
0.2061714128	machine learning theory
0.2061686050	aims to explore
0.2061599005	intuitive understanding
0.2061345257	generating large
0.2061168677	$ w_i
0.2061000899	to invest
0.2060791039	based agents
0.2060764835	$ l_ 2
0.2060485855	novel and efficient
0.2060408087	fast enough
0.2060293228	methods address
0.2060278974	motivated by applications
0.2060209901	a geometric approach
0.2060197947	$ \ mathsf
0.2059702860	model to learn
0.2059626455	rank component
0.2059365658	sequences of actions
0.2059113902	both simulated and real world
0.2058581305	empirical results show
0.2058523440	compared with
0.2058499931	data domain
0.2058385313	well characterized
0.2058264181	the information theoretic limits
0.2058175054	$ q_
0.2057964747	probability weighting
0.2057777394	non gaussian component
0.2057324301	results apply
0.2057266210	expressed in terms
0.2057215947	early training
0.2057208528	machine learning setting
0.2057165690	with and without
0.2057084976	expectation over
0.2056686588	an efficient alternative
0.2056682799	level of noise
0.2056395321	stream of data
0.2056308988	achieve 100
0.2056005591	latent variable model for
0.2055716191	make use of
0.2055632059	message passing on
0.2055621652	modeling algorithms
0.2055613512	depend only on
0.2055553260	take advantage of
0.2055486588	developed to solve
0.2055436740	an attention mechanism
0.2055308100	based online learning
0.2054739486	obtain accurate
0.2054617436	outperforms other methods
0.2054605178	per task
0.2054359193	guided by
0.2054304983	r \
0.2054043606	competes with
0.2054028728	underlying generative
0.2054020141	concentration inequality for
0.2054001608	switching between
0.2053925199	each epoch
0.2053644491	best action
0.2053488160	forecasting approaches
0.2053452898	learning with deep neural networks
0.2053305487	preserving data
0.2053230347	high detection
0.2053043840	experiments on imagenet
0.2052891507	proposed structure
0.2052639845	inference time
0.2052147626	ability to improve
0.2051921027	ensemble of classifiers
0.2051879055	re sampling
0.2051710807	selection results
0.2051665667	\ log d
0.2051392079	class of algorithms
0.2051223249	concentrating on
0.2051172779	analytical expressions for
0.2051162858	forward models
0.2050785362	method applied
0.2050357800	down sampling
0.2050102773	easy to
0.2049700870	algorithms on real world
0.2049694609	neural network features
0.2049313692	efficient policy
0.2049231208	every layer
0.2049121399	ising problem
0.2048966319	information theoretic limits of
0.2048886772	_ \
0.2048152264	time and energy
0.2048084858	outperforms existing state of
0.2048028902	a deep
0.2047277230	$ \ delta
0.2047165690	the two models
0.2047142847	$ norm penalty
0.2046861450	based decision making
0.2046693310	automated algorithm
0.2046678668	a nonparametric
0.2046447737	similarity measure between
0.2046210865	contribute to
0.2046192938	so as to maximize
0.2045495932	a low dimensional euclidean
0.2045075062	graphical representation
0.2044603627	non decreasing
0.2044275067	demonstrate substantial
0.2044198091	difficult to analyze
0.2044127117	$ l ^ q
0.2044125034	contrasted with
0.2044046340	linear rate of convergence
0.2044023106	an ontology
0.2043875480	an extensible
0.2043797371	decisions made by
0.2043516967	$ x_i
0.2043497589	dimensional tensor
0.2043402522	well to large
0.2043330564	least mean
0.2043184543	efficient numerical
0.2043168094	memory and time
0.2043159430	an increasingly important
0.2042956045	outperforms previous state of
0.2042756771	shown great potential in
0.2042701984	choice of kernel
0.2042343359	provide sufficient conditions for
0.2042046322	reduced computational
0.2041965956	achieve better performance
0.2041892533	learning models
0.2041833035	the information bottleneck principle
0.2041827757	paper compares
0.2041604150	flexible approach
0.2041478602	in high dimensional spaces
0.2041311721	a large margin
0.2041261927	problem class
0.2041196223	a model agnostic
0.2040947428	million data
0.2040847634	each class
0.2040711004	k means algorithm
0.2040559152	results in improved
0.2040557414	study involving
0.2040545999	large set
0.2040216025	alpha = 1
0.2040213688	set of experiments
0.2040074301	general bayesian
0.2039973732	models of deep
0.2039671560	robust graph
0.2039631377	more general
0.2039415821	fidelity model
0.2038984999	particularly well suited
0.2038895944	as much as possible
0.2038797450	the proposed framework
0.2038366529	tensor power
0.2038269540	an infinite
0.2038223510	introduce additional
0.2037522238	distinguished from
0.2037260659	an active learning algorithm
0.2037076264	physical models
0.2036816907	shown to produce
0.2036057573	learning representations for
0.2035924358	a multi scale
0.2035881893	the restricted boltzmann machine
0.2035812301	two component
0.2035586240	significantly improve upon
0.2035497688	and van roy
0.2035487227	back propagation through
0.2035349436	become ubiquitous
0.2034811470	alternative data
0.2034672924	unknown data
0.2034639610	real world network
0.2034465787	representations of images
0.2034087330	intend to
0.2033906101	a powerful tool
0.2033884606	experiments on several benchmark datasets
0.2033808132	evaluation problem
0.2033772893	efficient approximate
0.2033715229	provided by
0.2033556917	multiple neural
0.2033555133	popular algorithm
0.2033414027	desired level of
0.2033372832	builds on recent
0.2033116022	important data
0.2032868771	to relieve
0.2032310159	willing to
0.2032275011	test distributions
0.2032024813	with or without
0.2031835615	$ \ mathrm
0.2031802239	number of points
0.2031797242	this limitation
0.2031730695	and as such
0.2031655121	known ground truth
0.2031455344	max \ \
0.2031179068	dynamic neural
0.2031043144	problem dimension
0.2030746444	combined with existing
0.2030732973	number of labeled samples
0.2030482866	model based method
0.2030282777	par or better than
0.2029722439	in addition
0.2029577820	presence of missing
0.2029458537	a large extent
0.2029397184	an online
0.2029233933	space model
0.2029027526	class of loss functions
0.2028618094	prediction using deep
0.2028534807	spread across
0.2028424556	parts of
0.2028174897	an effective
0.2028123790	range of domains
0.2027678172	an introduction
0.2027501161	a support vector machine
0.2027464143	training and better
0.2027280197	important machine learning
0.2027239486	current understanding
0.2027162090	attention graph
0.2027050473	to capture long term
0.2027004254	under determined
0.2026604150	algorithms produce
0.2026543729	memory neural network
0.2026524379	high number
0.2026452906	results also suggest
0.2026215947	introduce deep
0.2026009198	gathered from
0.2025864639	space setting
0.2025717733	graph neural network models
0.2025658669	\ frac \ log
0.2025598352	high success
0.2025522234	passing algorithms
0.2025470854	f1 score of
0.2025412090	layer graph
0.2025391391	$ q =
0.2025296449	techniques based
0.2025212666	high inference
0.2024872673	on cifar100
0.2024817563	regret algorithms
0.2024792854	existing machine learning
0.2024613330	a permutation invariant
0.2024575574	scheme based
0.2024504758	number of columns
0.2024412773	based knowledge
0.2024149413	| p
0.2023701960	examples illustrate
0.2023662181	algorithms with provable
0.2023591407	algorithm provably
0.2023552484	propose to employ
0.2023169505	an optimal
0.2023138192	parameterized by
0.2023094593	non uniformly
0.2022404993	two new algorithms
0.2022396980	lack of training data
0.2022165690	the challenges of
0.2022151148	driven by
0.2021830996	powerful tools for
0.2021717880	using support vector machines
0.2021629996	framework for modeling
0.2021460124	proposed objective
0.2021374445	\ mathcal l
0.2021299750	the degree corrected stochastic
0.2021102802	an optimization framework
0.2020917033	results on cifar 10
0.2020834436	datasets generated
0.2020615187	to overcome
0.2020601100	a decentralized
0.2020206765	capture spatial
0.2020134235	large space
0.2019944788	proposed architectures
0.2019793184	horizon tasks
0.2019422170	alternate between
0.2019181828	family of distributions
0.2019114015	numerical solution
0.2019037527	on and off policy
0.2019017313	controlled by
0.2019004400	the results of
0.2018936771	significantly better performance
0.2018896457	small model
0.2018595543	assumed to
0.2018358938	experiments with synthetic and real
0.2017959137	realized by
0.2017947650	algorithms for finding
0.2017867098	real world data from
0.2017814216	criteria based
0.2017640319	control method
0.2017435971	learned graph
0.2017250850	data collected from
0.2017104202	methods applied
0.2016942247	the r package
0.2016796985	current results
0.2016731774	coresets for
0.2016659881	widespread use
0.2016560693	fast and simple
0.2016211861	\ omega_f
0.2016019473	an active area of research
0.2015853852	\ pi ^ *
0.2015576061	even if
0.2015370354	data poses
0.2015116951	time and accuracy
0.2015010141	$ vm
0.2014350437	the log marginal likelihood
0.2014188673	a differentially private
0.2013269220	long term dependencies in
0.2013150896	recognition algorithms
0.2013018724	high dimensional probability
0.2012980510	non linear systems
0.2012948520	a gaussian mixture model
0.2012524925	threshold value
0.2012455595	fraction of
0.2012347698	data consisting
0.2012145573	class of distributions
0.2012011866	state fmri
0.2011967805	specific training
0.2011784980	less frequently
0.2011758977	existing graph neural
0.2011755608	mechanism based
0.2011730695	as one of
0.2011606337	non interactive
0.2011530185	proposed idea
0.2011339639	learning solution
0.2011331171	point method
0.2011297681	divergence between
0.2011157573	stationary time
0.2011114403	parametric approach
0.2010808173	approaches learn
0.2010693428	log t
0.2010529455	central goal of
0.2010508474	an algorithmic
0.2010096559	full scale
0.2010079389	x_n \
0.2009874095	a mixed integer linear
0.2009693349	networks offer
0.2009614336	interactions across
0.2009454879	previous ones
0.2009416287	learn nonlinear
0.2009409105	each participant
0.2009343517	early as possible
0.2009318763	ability to provide
0.2009266958	each view
0.2009239660	\ min \
0.2009132330	real time data
0.2009059699	^ 2 \ log n
0.2009017307	novel and flexible
0.2009014141	ability of deep learning
0.2008772308	sparse and non
0.2008709222	the data generating process
0.2008625431	set of particles
0.2008574840	best practice
0.2008263622	^ n \ times p
0.2008205804	used to train
0.2007914505	structured gaussian
0.2007630144	common problem
0.2007618034	time series regression
0.2007395817	based baseline
0.2007314137	an infinite dimensional
0.2007287758	conditions under
0.2007177830	false positive rate of
0.2006953748	as opposed to
0.2006931021	causal discovery from
0.2006768307	cast as
0.2006478640	never seen
0.2006103983	data of different
0.2005582786	related to
0.2005431366	two sample hypothesis
0.2005354438	effects model
0.2005180294	based parameter
0.2004859350	for unsupervised domain adaptation
0.2004854077	family of algorithms
0.2004598806	for multi label classification
0.2004513049	$ \ tilde o \ big
0.2004396174	a wide range of
0.2004282872	+ 2
0.2004243539	algorithms for optimizing
0.2004166939	training problem
0.2004105880	bound based
0.2003972602	sequence generated by
0.2003940924	compared with conventional
0.2003887228	size of modern
0.2003499673	estimation of high dimensional
0.2003113804	an oracle inequality
0.2002928696	set of actions
0.2002797502	improving sample
0.2002528292	algorithm compared
0.2002102212	a probabilistic approach
0.2001946946	$ m =
0.2001734440	driven prediction
0.2001464602	standard maximum
0.2001417070	recognition method
0.2001315675	a visual analytics
0.2001225357	a multi task
0.2001147753	parallel version
0.2001038980	an ensemble
0.2000891538	significant gains over
0.2000836925	achieve performance
0.2000747794	a particle filter
0.2000581774	a deep autoencoder
0.2000375438	three way
0.2000064106	label text
0.1999926842	algorithm inspired
0.1999813093	method achieves state of
0.1999498152	perform extensive experiments on
0.1999214306	based prediction
0.1998964312	reduce human
0.1998954392	tree learning
0.1998606494	predictive machine learning
0.1998488160	identify multiple
0.1998196661	& w
0.1997871744	efficient framework
0.1997715352	the wild
0.1997682468	speedup over
0.1997602490	noisy or
0.1997546781	input point
0.1997452353	space domain
0.1997011969	clustering scheme
0.1996639461	this tutorial
0.1996440000	estimate model
0.1996320088	drawn independently from
0.1996070631	sparse set
0.1995909058	both within and
0.1995690915	proposed strategies
0.1995601620	$ \ pi_
0.1995329897	one stage
0.1995049659	\ gamma ^
0.1994958796	graph adversarial
0.1994802937	level information
0.1994772533	this paper addresses
0.1994420498	least square loss
0.1994402604	the past few years
0.1994351324	generalization of neural networks
0.1994326864	asymptotic normality of
0.1994291901	wasserstein distance between
0.1994183727	multiple information
0.1994089742	more robust
0.1993889105	the kullback leibler
0.1993622416	processing data
0.1993602056	so as to
0.1993134913	introduction to
0.1992975370	on average
0.1992888513	consists of multiple
0.1992667104	emergence of
0.1992533595	certain extent
0.1992178544	approximation problems
0.1992165833	validated by
0.1992012738	a two step
0.1992002434	created by
0.1991867101	frequency data
0.1991239139	information present in
0.1991012088	model successfully
0.1990977134	bernoulli random
0.1990932143	\ widetilde \ mathcal o
0.1990828431	iterates converge to
0.1990710511	neural network algorithms
0.1990170035	learning node
0.1990143511	soft q
0.1989823780	powerful machine
0.1989498326	well approximated by
0.1989385421	as long as
0.1989357366	demonstrate significantly
0.1989092660	demonstrate competitive
0.1989055002	adapted to
0.1988879235	real world case
0.1988709364	much higher
0.1988528943	subsets of
0.1988280080	challenges in reinforcement
0.1988263982	networks provide
0.1988192525	improvement over previous
0.1987415062	the frank wolfe algorithm
0.1987104091	do not exist
0.1986953053	ease of use
0.1986589307	| f
0.1986493217	introduced by
0.1986480710	an adversarial manner
0.1986447399	put into
0.1985937664	continues to
0.1985830630	lack of understanding
0.1985774130	attained by
0.1985152466	a strong baseline
0.1984706039	regret performance
0.1984689249	converges to
0.1984678336	\ mathbb r ^ p
0.1984475489	adaptive version
0.1984366683	trained only on
0.1984350213	\ mathcal g
0.1984089002	search over
0.1983938858	variety of applications
0.1983901144	impediment to
0.1983730221	begins by
0.1983502700	suffers from high
0.1983050121	a key aspect
0.1982909132	local optimization
0.1982050236	framework significantly
0.1981807221	proposed approach significantly
0.1981794229	test log
0.1981630119	builds on
0.1981540867	value gradients
0.1981315223	come from
0.1981188299	learning technology
0.1980908328	leave one out cross
0.1980783571	do not require
0.1980316798	objective based
0.1980136404	finite sample properties
0.1980097087	set of
0.1979946446	received increasing attention in
0.1979932528	a deep ensemble
0.1979907817	difficult to
0.1979867520	existence of
0.1979770534	task 2
0.1979740526	any depth
0.1979715925	provide users with
0.1979523073	network achieves
0.1979502011	$ c_
0.1979242779	improving data
0.1979219513	many machine learning algorithms
0.1979078570	composed of multiple
0.1978922137	and many of
0.1978769098	$ k
0.1977965489	the high dimensional regime
0.1977564962	free method
0.1976743701	inherited from
0.1976549401	propose to learn
0.1976501642	x vector
0.1976466735	approaches provide
0.1976416950	one hundred
0.1976113844	the large sample limit
0.1976000129	$ m = o
0.1975885519	anomaly detection via
0.1975698837	past work
0.1975605098	\ url
0.1975575541	difficult to identify
0.1975492200	efficient feature
0.1975464370	testing whether
0.1975356919	existing inference
0.1975223198	information required
0.1974596385	a systematic study
0.1974584019	expensive and time
0.1974547744	self attention layers
0.1974280638	regret bounds for
0.1974117721	convergence of stochastic gradient descent
0.1973183917	attention in machine learning
0.1973074781	in response to
0.1972621402	wide range of tasks
0.1972545195	\ mathscr
0.1972242920	robustness of classifiers
0.1971825694	aim to develop
0.1971701536	performance bound
0.1971565412	handling high
0.1971511926	the bayes optimal classifier
0.1970830371	the ambient dimension
0.1970655813	required to perform
0.1970547504	one shot neural architecture
0.1970428841	$ \ widehat
0.1970404648	passing based
0.1970373075	a benchmark dataset
0.1970136523	based simulation
0.1970126418	each party
0.1970010148	space of measures
0.1969721896	network mining
0.1969708675	method for training
0.1969392202	non convex stochastic
0.1969357132	the handling of
0.1969336937	non robust
0.1969227181	$ norm minimization
0.1969204483	based machine
0.1969145817	problem involves
0.1968884001	a siamese
0.1968820984	based signal
0.1968683829	$ a_0
0.1968662639	network approaches
0.1968648346	sample bounds
0.1968591713	capture high
0.1968591713	high communication
0.1968472430	model learned
0.1968286116	method applicable
0.1968254625	convex combinations of
0.1967971705	dealing with large
0.1967824367	ability to
0.1967634085	a general recipe
0.1967575772	\ varepsilon ^
0.1967401945	this paper examines
0.1967373722	benefits from
0.1967241754	variance analysis
0.1967236479	a python
0.1967226512	90 \
0.1967223042	method for large scale
0.1967206718	original task
0.1967190904	best choice
0.1967071889	competitive performance against
0.1966881025	experiments on public
0.1966795897	a large scale
0.1966728809	specific learning
0.1966381489	towards automated
0.1965960124	general optimization
0.1965919572	problems on graphs
0.1965812578	simple neural network
0.1965520998	existing network
0.1965496427	robust neural
0.1965266223	into one of
0.1965237421	encoded into
0.1965182749	efficient prediction
0.1964967123	heterogeneous multi
0.1964896094	the frank wolfe
0.1964802104	experiments on mnist and cifar
0.1964784876	independent error
0.1964575079	a major drawback
0.1964391352	a multi modal
0.1963749227	almost as good
0.1963749024	from data in
0.1963690414	good coverage
0.1963385712	algorithms developed
0.1963339401	the original
0.1963108080	samples from
0.1963075996	apply existing
0.1963019018	efficient algorithms for learning
0.1962930693	objective reinforcement learning
0.1962866793	based uncertainty
0.1962840067	non convex setting
0.1962837137	per second
0.1962717521	a low complexity
0.1962688124	distribution samples
0.1962408399	machine learning approach for
0.1962374528	provide fast
0.1962165690	the language of
0.1962133754	generalized model
0.1961912287	too small
0.1961709644	making problems
0.1961646593	very small
0.1961552234	widely used approaches
0.1961072558	achieve better
0.1961063945	many real world networks
0.1961003841	an important issue
0.1960473711	real experiments
0.1960312380	with discrete latent variables
0.1960303658	tries to
0.1959721896	crucial problem
0.1959396962	large image
0.1959216902	apply deep
0.1959164307	faster and more accurate
0.1958911203	of such tasks
0.1958525343	sensing based
0.1958511677	data arising
0.1958496207	mainly because
0.1958385712	traditional approach
0.1958201727	volume of data
0.1958131740	\ mathcal e
0.1957976831	method for approximating
0.1957875602	existing sparse
0.1957765479	model posterior
0.1957545716	experiments on various datasets
0.1957462721	classifier to predict
0.1957392917	combination of
0.1957341903	number of users
0.1957268112	different trade offs
0.1957096239	newton algorithms
0.1957079834	challenging task because
0.1956806996	constructed from
0.1956803628	downstream machine
0.1956798945	models of data
0.1956511163	epsilon 0
0.1956423248	batch gradient descent
0.1956203544	fair with respect
0.1956066658	from noisy observations
0.1956061336	brief overview of
0.1955834151	unlike prior work
0.1955705446	a new perspective
0.1955689161	a machine learning algorithm
0.1955607240	provide similar
0.1955501990	scale real
0.1955217200	the deep learning community
0.1955147773	thus avoiding
0.1955052088	a wide variety of
0.1954954534	lstm models
0.1954473140	high mutual
0.1954371027	obtain optimal
0.1954102056	in order to
0.1954021308	experiments on cifar
0.1954010510	em like
0.1953566713	passing algorithm
0.1953552066	likely to occur
0.1953074781	the fields of
0.1953026151	collected during
0.1952864091	algorithm for optimizing
0.1952856778	challenging because
0.1952260565	numerical algorithm
0.1952165690	the predictions of
0.1951923708	the false positive rate
0.1951803952	q learning based
0.1951755608	map based
0.1951719030	based representations
0.1951251618	towards zero
0.1951211364	pre trained neural
0.1950907106	each modality
0.1950709876	competing models
0.1950444074	a user study
0.1950301579	contained in
0.1950282222	greedy algorithm for
0.1950273472	for training deep neural networks
0.1950230700	time of day
0.1950050236	effective framework
0.1949851641	process classification
0.1949629520	proposed approximation
0.1949357132	the difficulties of
0.1949357132	the rules of
0.1949293413	traditional deep learning
0.1949282945	under markovian
0.1949195842	and not on
0.1949185365	compared to baseline
0.1948992200	space structure
0.1948911203	for many data
0.1948715811	unsuitable for
0.1948551355	more flexible
0.1948382824	method to learn
0.1948075604	global data
0.1947967118	very low
0.1947902627	metrics to evaluate
0.1947847317	notions of
0.1947799239	large label
0.1946843752	making use of
0.1946769421	becoming more
0.1946301899	perform tasks
0.1946248978	existing robust
0.1946142633	an expanded
0.1946058894	methods on real world
0.1945944629	special form of
0.1945898953	general problem
0.1945731993	shared among
0.1945509093	exposed to
0.1945375383	polynomial neural
0.1945355646	gap by proposing
0.1945301138	robust framework
0.1945190465	of parameters in
0.1944684014	many real world tasks
0.1944443810	information obtained
0.1944439504	central limit theorem for
0.1944386956	x vectors
0.1944223618	robust machine
0.1943975751	generate novel
0.1943965976	angle between
0.1943565230	unavailability of
0.1943397362	the paper also
0.1943322130	once trained
0.1943262186	set of data points
0.1943060075	clustering via
0.1942939145	underlying optimization
0.1942893161	propose deep
0.1942885868	great success in
0.1942782175	performed by
0.1942692965	for use in
0.1942685856	a determinantal point process
0.1942535490	important machine
0.1942435974	transition models
0.1942325332	making problem
0.1942165690	the hyperparameters of
0.1942165690	the solutions of
0.1942165690	the technique of
0.1942165690	the topic of
0.1942050236	common classification
0.1942020239	a pre trained
0.1941799734	actions taken by
0.1941790348	more computationally efficient
0.1941675081	$ p
0.1941632583	based speaker
0.1941629942	existing regularization
0.1941531846	training and testing data
0.1941467783	objective bayesian optimization
0.1941342149	provide theoretical guarantees for
0.1941182889	the purposes of
0.1941068916	interfere with
0.1940994076	existing statistical
0.1940956596	\ chi ^ 2
0.1940925971	training of dnns
0.1940694140	based memory
0.1940665482	\ rangle +
0.1939908260	80 \
0.1939816907	from observational data
0.1939728508	released at
0.1939656291	indicative of
0.1939618296	based attention
0.1939357132	the simulation of
0.1939173299	number of instances
0.1939004272	distribution model
0.1938746087	abstain from
0.1938730686	$ \ epsilon 0
0.1938701233	simple random
0.1938588019	p \ gg
0.1938534881	operate on
0.1938469408	1 3
0.1938271237	temporal neural
0.1938196971	set of hyperparameters
0.1937897060	computer simulations
0.1937369602	algorithm to learn
0.1937303602	potential to improve
0.1937220520	specific datasets
0.1937208467	need to know
0.1937042044	the generalized lasso
0.1937004400	the end of
0.1936994612	y |
0.1936748348	low rank approximation of
0.1936632784	a feed forward neural network
0.1936469298	higher test
0.1936335491	at multiple scales
0.1936188531	theoretical justification for
0.1936062445	classic problem
0.1936025854	a tensor based
0.1935727318	dynamics models
0.1935363191	prior information about
0.1935115112	existing reinforcement learning
0.1935048797	out performs
0.1934879400	problem faced by
0.1934762142	multiple machine
0.1934724201	beta ^
0.1934310654	s ^ *
0.1934279313	algorithms for online
0.1934182048	without fine tuning
0.1933860793	data applications
0.1933748978	stochastic matrix
0.1933697950	single neural
0.1933620837	updated during
0.1933267079	supervised anomaly
0.1933186062	model for predicting
0.1933074781	for classification and
0.1932871521	reformulated as
0.1932665255	information setting
0.1932509092	slightly better
0.1932215010	search for optimal
0.1932206718	series modeling
0.1932165690	the problems of
0.1932165690	the applications of
0.1932135894	design setting
0.1931817566	selection framework
0.1931678423	generation using
0.1931287109	learning bound
0.1930882921	in proportion to
0.1930697961	training approaches
0.1930648203	objective optimization
0.1930465559	the training set
0.1930397432	studies and real data
0.1930309108	\ beta _ \
0.1930273798	the speed and
0.1930029064	number of filters
0.1929810411	a key role
0.1929784639	collection of
0.1929733226	based tensor
0.1929625001	estimated model
0.1929517438	$ m \ times n
0.1929494123	a convex optimization problem
0.1929438349	descent update
0.1929393337	assigned to
0.1929357132	the findings of
0.1929325533	general graph
0.1929049635	based only on
0.1929048876	smooth and non
0.1929041745	problem of reconstructing
0.1928911203	as more data
0.1928886681	survival models
0.1928723735	an important step towards
0.1928236892	an open source software
0.1927897877	general class of
0.1927882752	without sharing
0.1927857701	non parallel
0.1927771682	works focus
0.1927768048	simple framework
0.1927582312	large design
0.1927559968	multiple low
0.1927494130	framework for constructing
0.1927421270	\ mathcal n
0.1926970754	mappings between
0.1926951233	simple gradient
0.1926870291	extract information
0.1926563063	synthetic training
0.1926216077	learning technologies
0.1926064435	fixed dataset
0.1926056091	set learning
0.1926047357	confined to
0.1925891425	simple optimization
0.1925815102	inspired by human
0.1925751933	a scalable
0.1925724758	case analysis
0.1925648203	class samples
0.1925380115	learn to generate
0.1925246710	supervised network
0.1925209052	participated in
0.1925101092	terms of speed and
0.1925059968	patients based
0.1924888886	question whether
0.1924820084	$ norm regularized
0.1924508387	$ p_1
0.1924485015	bayes inference
0.1924332195	defined as
0.1924226505	an arm
0.1924063467	learning system
0.1923893911	an alternative approach
0.1923893842	non linear functions
0.1923760371	initial value
0.1923692488	a large scale empirical study
0.1923554092	1 \ alpha
0.1923448569	linear decision
0.1923421732	efficient procedure
0.1923212393	domain tasks
0.1923161836	an upper confidence bound
0.1923078877	the proposed algorithm achieves
0.1923074781	the outcomes of
0.1923061027	embedded within
0.1922997558	computational models
0.1922791341	aside from
0.1922663861	mean difference
0.1922403045	classification models
0.1922218566	probabilistic analysis
0.1922203213	& c
0.1922192843	for semi supervised learning
0.1922165690	the focus of
0.1922165690	the architecture of
0.1922012428	shown to
0.1921691773	experimental results on synthetic and real
0.1921668670	\ log ^ 2 n
0.1921655006	2 d
0.1921569009	a comparative analysis
0.1921331920	evaluated on
0.1921188630	data validate
0.1921168107	neural networks for classification
0.1921105016	residual convolutional
0.1920901973	based framework for
0.1920846884	structured graphical
0.1920641085	reducing training
0.1920492200	stochastic optimal
0.1920273798	in parallel with
0.1920273798	the issues of
0.1920266223	the pursuit of
0.1920098427	truth data
0.1919828048	no reward
0.1919770249	mainly focused on
0.1919734984	proposed test
0.1919673519	a modular
0.1919592846	1 nn
0.1919589187	+ d
0.1919576169	both white box and black box
0.1919357132	the setting in
0.1919330903	modern learning
0.1919241476	keep track of
0.1919216254	those of other
0.1919136507	aspects of
0.1919127140	limited number
0.1918925159	to solve
0.1918707297	dimensional random
0.1918664104	k means objective
0.1918588904	quality results
0.1918573752	underlying problem
0.1918565380	\ cdot \ log
0.1918508509	results on real data
0.1918291263	learning methodology
0.1918131740	\ mathcal y
0.1918111416	become one of
0.1917927486	networks for image classification
0.1917918903	computer systems
0.1917542868	primarily due
0.1917540310	generic method
0.1917050236	investigate deep
0.1917006625	of paramount importance
0.1916996266	non informative
0.1916994236	crucial task
0.1916596864	complex learning
0.1916514282	ill patients
0.1916449664	the variational lower bound
0.1916072607	results in poor
0.1915852417	10 ^
0.1915660751	a graph convolutional network
0.1915590389	proposed to improve
0.1915564016	based reward
0.1915537406	large computational
0.1915429233	establish conditions
0.1915220464	standard matrix
0.1914959007	n + 1
0.1914893801	specifically designed for
0.1914657515	non invertible
0.1914650010	l 1
0.1914438151	increasing model
0.1914375867	rich class
0.1914246145	explore then
0.1914239500	regularized policy
0.1914053149	value based reinforcement
0.1914048063	differentially private stochastic
0.1913980913	on several real world datasets
0.1913905779	challenging high
0.1913731577	classical problem
0.1913366035	an important
0.1913297372	yields significant
0.1913260233	standard clustering
0.1912803778	the covid 19 pandemic
0.1912757618	compared to competing
0.1912677048	resulting in
0.1912165690	the tasks of
0.1912064962	algorithm presented
0.1911920145	nn graphs
0.1911896866	in reproducing kernel hilbert spaces
0.1911820418	sparse kernel
0.1911659233	diverse training
0.1911652150	make sure
0.1911604410	sets of features
0.1911593620	the main novelty
0.1911527402	a contextual bandit
0.1911505800	insights regarding
0.1911505470	the decisions of
0.1911482158	a weakly supervised
0.1911476895	vector clustering
0.1911182889	the cases of
0.1910784732	adaptation algorithms
0.1910273798	the approach in
0.1910273798	the costs of
0.1910273798	the requirements of
0.1910220464	complex feature
0.1910116057	learning based algorithms
0.1909855057	high fidelity models
0.1909560453	learning components
0.1909357132	the detection and
0.1909195842	the models on
0.1908516409	sharing scheme
0.1908400831	weighted empirical
0.1908345003	\ mathbb r ^ k
0.1908208951	layer neural networks with
0.1908187056	norm solution
0.1908107546	involving large
0.1908075996	standard setting
0.1908068741	provide bounds
0.1907745191	sub tasks
0.1907577684	relation among
0.1907539227	type of data
0.1907462671	readily applied to
0.1907426146	working within
0.1907395341	an increasing amount
0.1907004400	the weights of
0.1907004400	the entropy of
0.1907004400	the learning of
0.1907004400	the inference of
0.1906995850	computed by
0.1906812594	to learn
0.1906685528	novel deep learning model
0.1906574481	end to end deep neural
0.1906468991	an auto regressive
0.1906397725	$ divergence
0.1906235747	point problem
0.1906164829	the d wave
0.1906117878	based regression
0.1906025434	low dimensional structure of
0.1905979911	nlp models
0.1905883569	multiple random
0.1905846992	to ensure
0.1905818889	\ mathcal p
0.1905725472	handling large
0.1905479150	provide promising
0.1905351566	an explainable
0.1905301110	fundamental trade off
0.1905271971	statistical hypothesis
0.1905181151	learning works
0.1905119290	neural network to learn
0.1904948732	mathematically equivalent to
0.1904814870	estimators based
0.1904652757	an experimental evaluation
0.1904556483	an in depth study
0.1904372336	policy model
0.1904248492	the resulting
0.1904115391	robust data
0.1904078336	r ^ m \ times n
0.1904066728	a convex program
0.1903854650	proven to
0.1903726634	including multi
0.1903644280	robust method
0.1903535403	equivalent to
0.1903518577	different views
0.1903397362	the concepts of
0.1903117900	bayesian generalization
0.1902460145	algorithms designed
0.1902421943	a few minutes
0.1902165690	the coefficients of
0.1902165690	and classification of
0.1901749158	finite number of iterations
0.1901642855	significant improvements compared to
0.1901627538	the optimal sample complexity
0.1901461959	in many practical scenarios
0.1901254955	the true data distribution
0.1901182889	the attention of
0.1901010472	global network
0.1901002142	initial learning
0.1900863051	action taken
0.1900830391	time consuming task
0.1900282515	valued variables
0.1900273798	the actions of
0.1900266223	the domains of
0.1900203387	provide new insights
0.1899905257	data patterns
0.1899644690	a low dimensional embedding
0.1899585809	robust models
0.1899550334	compared to previous methods
0.1899357132	the ways in
0.1899052386	by leveraging
0.1898706475	consisted of
0.1898187469	yield better
0.1897971834	wide range of domains
0.1897916037	deep learning framework for
0.1897793646	perform complex
0.1897790289	a biologically plausible
0.1897659125	results show
0.1897591597	the key idea
0.1897457930	complex deep
0.1897456846	task training
0.1897287087	$ h
0.1897223215	driven model
0.1897004400	the rank of
0.1897004400	the scale of
0.1896488553	an adversarial approach
0.1896451233	policy estimation
0.1896345685	based optimization algorithms
0.1895736702	$ \ mathbb r ^ d
0.1895588803	and control of
0.1895341653	learning from noisy
0.1894930264	supervised techniques
0.1894505000	a versatile
0.1894456586	graph generative
0.1894404346	popular optimization
0.1894261777	outperform state
0.1894233908	performance of
0.1893994076	simple stochastic
0.1893660251	tasks such as image classification
0.1893550984	broadly used
0.1893538667	an explicit
0.1893419133	provide more accurate
0.1893345717	solved via
0.1893294077	features based
0.1893271269	as opposed
0.1893231239	network to learn
0.1893184250	shown to provide
0.1893141085	problem remains
0.1893094597	less computation
0.1892683829	$ n_1
0.1892599249	approach to learn
0.1892489959	the jacobian of
0.1892442086	guided neural
0.1892349999	based ssl
0.1892259956	extracting information from
0.1891878515	neural networks suffer
0.1891744336	equal to
0.1891614325	nonparametric latent
0.1891359160	system level
0.1891040569	a mini batch
0.1890636064	p ^ 2
0.1890588803	the objectives of
0.1890588803	the perspectives of
0.1890439145	based baselines
0.1890273798	the activity of
0.1890273798	the processing of
0.1890267287	training of neural
0.1890245003	$ m \ ll n
0.1890128676	regression approaches
0.1889900553	package provides
0.1889867630	dl models
0.1889791068	extensive experimental results show
0.1889733981	methods for reducing
0.1889264930	numerical experiments show
0.1888559836	simple data
0.1888339287	based brain
0.1888295792	speed data
0.1888237061	transformation models
0.1888191855	analyzing data
0.1887893505	an intriguing
0.1887597139	achieve new state of
0.1887540198	a hierarchical
0.1887481432	a simple but effective
0.1887306351	joint estimation of
0.1887239041	detect adversarial
0.1887189229	\ sum_ i
0.1887004400	the nodes of
0.1887004400	the embedding of
0.1887004400	the distributions of
0.1887004400	the statistics of
0.1886700682	the p300
0.1886583243	non targeted
0.1886383088	a small number
0.1886248978	existing online
0.1886216248	supervised neural
0.1886201233	domain image
0.1886130980	the resulting optimization problem
0.1886109266	for strongly convex problems
0.1886045189	a light weight
0.1885992106	\ ell_ 1
0.1885852715	progress made
0.1885679777	a deep recurrent
0.1884835410	deep learning approach for
0.1884753775	optimal accuracy
0.1884721120	draws from
0.1884692744	exponential random
0.1884588683	deep neural networks through
0.1884476713	cognitive models
0.1884434677	relative to
0.1884433340	different but related
0.1884343439	coupled with
0.1884195842	the assumptions of
0.1884060629	different roles
0.1883949559	network called
0.1883912318	closed form solution for
0.1883532281	important role in
0.1883480203	next best
0.1883397362	in term of
0.1883338166	non stochastic
0.1883050194	the mini batch size
0.1882759681	on par
0.1882735873	on line learning
0.1882381014	variety of contexts
0.1882201432	optimization setting
0.1882124239	paper attempts
0.1881962483	low rank approximations of
0.1881795270	more than
0.1881685105	end to end automatic
0.1881529142	an interpretable
0.1881361412	complex neural
0.1881047329	specific neural
0.1880944793	more advanced
0.1880745846	consists of two components
0.1880563260	learns to predict
0.1880499870	ability to automatically
0.1880463621	to address
0.1880351708	$ \ ell ^
0.1880268937	graph based neural
0.1880266223	a speedup of
0.1880064435	optimization benchmarks
0.1880006224	as many as
0.1879846556	analysis of
0.1879763745	alternative algorithm
0.1879559636	sets demonstrate
0.1879485788	the other hand
0.1879389412	topological properties of
0.1879357132	the trajectories of
0.1879357132	the iterations of
0.1879344750	bounds on
0.1879240071	more accurately
0.1879076334	1d convolutional
0.1878911203	models in high
0.1878872130	w ^
0.1878436182	basic problem
0.1878414138	through extensive experiments
0.1878173984	recent machine
0.1877843175	simple statistical
0.1877731358	wide range of problems
0.1877564298	poised to
0.1877357132	the research of
0.1877357132	the patterns of
0.1877357132	the architecture and
0.1877206437	an innovative
0.1877149991	linear state
0.1877004400	the labels of
0.1877004400	the preferences of
0.1876768174	to alleviate
0.1876733040	single framework
0.1876688773	^ * \ in \ mathbb
0.1876675081	$ m
0.1876599887	on multiple benchmark datasets
0.1876529838	learning model trained
0.1876495685	non convex settings
0.1876397620	due in part to
0.1876317057	random measurement
0.1876123253	large sets
0.1876110707	sums of
0.1876072860	no additional
0.1875998587	for named entity recognition
0.1875914394	technique to reduce
0.1875873378	dozens of
0.1875838941	extensive data
0.1875765884	general machine
0.1875654741	analysis of variance
0.1875535403	impact on
0.1874784567	important feature
0.1874694480	a multi armed bandit problem
0.1874530442	computationally efficient learning
0.1874430693	efficient machine
0.1874304889	effective approaches
0.1874300918	the internet
0.1874195842	the observations of
0.1874195842	the scores of
0.1874195842	the mapping of
0.1873583424	the main reason
0.1873455983	organized into
0.1873213542	$ t
0.1872885707	an increasingly popular
0.1872882307	more difficult
0.1872840917	zero sum game between
0.1872834433	an autonomous
0.1872821013	rank optimization
0.1872818374	at odds with
0.1872811879	classification metrics
0.1872779851	problem efficiently
0.1872633563	partly due to
0.1872542594	measurement models
0.1872424579	trained to solve
0.1872165690	the approach of
0.1871857132	and management of
0.1871857132	of users in
0.1871684543	\ epsilon ^
0.1871619366	next step
0.1871451233	general latent
0.1871444769	a random forest
0.1871426675	estimate parameters
0.1871317057	contextual policy
0.1871230622	neural network based models
0.1871132277	an arbitrary
0.1871005427	resulting algorithms
0.1870727678	a promising solution
0.1870690873	learning to solve
0.1870609385	rank methods
0.1870547310	this work
0.1870386794	significant differences between
0.1870350047	more accessible
0.1870311216	train large
0.1870287480	compute optimal
0.1870084037	the stochastic multi armed bandit problem
0.1870040320	out of core
0.1869959197	multivariate random
0.1869612849	exponential dependence on
0.1869572042	the given data
0.1869506480	effective defense
0.1869443143	diverse set of
0.1869420034	human level performance on
0.1869370203	advantage over
0.1869357132	the interactions of
0.1869185185	sets of variables
0.1868911203	time and sample
0.1868911203	new and efficient
0.1868739251	for large scale problems
0.1868547058	view clustering
0.1868482285	generated adversarial
0.1868476262	computational analysis
0.1868399404	approach for constructing
0.1868343175	probabilistic matrix
0.1868232711	more difficult than
0.1868214298	a derivative free
0.1867955985	neural network called
0.1867893301	problems related
0.1867721685	this problem
0.1867641413	method to train
0.1867440905	explicit data
0.1867266540	establish convergence
0.1867102431	$ d
0.1867027064	advantage of
0.1867004400	the edges of
0.1867004400	the gradients of
0.1866887175	the proposed model outperforms
0.1866795389	proper choice of
0.1866666749	illustrated on
0.1866649707	popular framework
0.1866622592	\ to \ mathbb r
0.1866258838	more than 90
0.1866251620	large text
0.1866036309	a major bottleneck
0.1866015168	towards robust
0.1865938151	channel data
0.1865839901	from undersampled
0.1865786675	non linear activation
0.1865713957	rise of deep learning
0.1865461531	practical use
0.1865396505	sets of points
0.1865391875	relatively simple
0.1865122454	\ log \ log t
0.1865112508	the parameters for
0.1865112508	the inputs of
0.1864982593	verified by
0.1864467009	in pursuit of
0.1864195842	the sampling of
0.1864195842	and precision of
0.1864195842	the errors of
0.1864195842	the labeling of
0.1864150129	family of functions
0.1864140042	network activation
0.1863777688	a key ingredient
0.1863616229	training data distribution
0.1863577508	number of examples
0.1863470688	significantly better results
0.1863385519	complex statistical
0.1863270067	approach to solving
0.1863201206	used extensively
0.1863190101	information extracted
0.1863121405	information regarding
0.1863047720	point detection
0.1862864765	a wide margin
0.1862373779	a polynomial number
0.1862325771	different depths
0.1862217047	by formulating
0.1862118267	added to
0.1862036647	generic algorithm
0.1861857132	the regularization of
0.1861838070	factorization models
0.1861680666	as fast as
0.1861655233	dependence between
0.1861560010	different brain regions
0.1861538284	t t
0.1861505470	in support of
0.1861505470	the ideas of
0.1861424062	a decision maker
0.1861132324	approaches based
0.1861070320	broader range of
0.1861012349	fixed network
0.1861004363	experiments on
0.1860273798	the sizes of
0.1860273798	the treatment of
0.1860273798	the mechanism of
0.1859742243	wider class of
0.1859500817	recognition benchmark
0.1859480715	unbiased estimation of
0.1859124331	= \ frac
0.1859113489	similarities and differences between
0.1859102056	with respect to
0.1859017454	modified version of
0.1858984178	items based
0.1858721016	1 \ sqrt t
0.1858502659	recent neural network
0.1858220464	simple regression
0.1858174392	linear combination of
0.1858157689	uncertainty about
0.1858068741	information learned
0.1857981198	bayesian network models
0.1857765969	a globally optimal
0.1857683223	recent progress in deep
0.1857647624	two main
0.1857615423	prove bounds
0.1857542033	designed to improve
0.1857439698	performance compared to existing
0.1857345969	neural network framework
0.1857282335	approach to analyze
0.1857196425	complemented with
0.1857082312	robust feature
0.1857004400	the transfer of
0.1857004400	the control of
0.1856922836	x \ sim
0.1856861236	sparse models
0.1856693854	capture temporal
0.1856451142	manages to
0.1856401017	little insight
0.1856353381	markov decision processes with
0.1855999610	large multi
0.1855946726	connections among
0.1855875249	results in significant
0.1855838966	t 1
0.1855641085	information provided
0.1855581846	large training
0.1855527930	1 + o
0.1855512301	3d reconstruction
0.1855419544	a physics informed
0.1855220504	account for
0.1855112508	the vector of
0.1854834914	very promising results
0.1854815616	across multiple
0.1854810782	improvement in accuracy
0.1854744256	quantified by
0.1854729572	the art algorithms
0.1854527123	| | x |
0.1854285504	method leads
0.1854225867	a challenging problem
0.1854195842	the order in
0.1854195842	the rank and
0.1854145213	the proposed methods
0.1853774613	both synthetic and real world data
0.1853618528	stochastic gradient variational
0.1853288280	methods converge
0.1853211537	several strong baselines
0.1852592862	objective function value
0.1852406336	an exponentially large
0.1852294133	a central challenge
0.1851902010	full bandit
0.1851827892	achieves new state of
0.1851814789	after observing
0.1851644024	much progress
0.1851483761	role in machine learning
0.1851103857	towards solving
0.1850968329	extract useful
0.1850934716	optimal number
0.1850759316	an agent
0.1850731955	extensive experiments show
0.1850705487	current machine
0.1850604150	framework introduced
0.1850547940	including social
0.1850310979	2 4
0.1849959155	the strongly convex case
0.1849923327	stationary gaussian
0.1849836095	this regard
0.1849784906	not enough
0.1849629018	k \ log
0.1849511409	quite challenging
0.1849429594	achieves better performance than
0.1849357132	the algorithms on
0.1849357132	the analysis to
0.1849231507	few samples
0.1849185620	begun to
0.1848955204	seq2seq models
0.1848691480	as low as
0.1848536367	many practical problems
0.1848522623	method does not require
0.1848458368	two step procedure
0.1848293080	theoretic model
0.1848286657	a constant step size
0.1848260633	proposed representation
0.1848055761	compares favorably with other
0.1847928684	methods leverage
0.1847776122	improved sample
0.1847763578	to prevent overfitting
0.1847753996	attending to
0.1847707749	as hard as
0.1847263626	successful learning
0.1847152715	experiments show
0.1847132954	learning from multiple
0.1847004400	the maximization of
0.1847004400	the confidence of
0.1846915523	neural network to predict
0.1846896800	synthetic data and real data
0.1846709197	fixed architecture
0.1846670554	power of deep learning
0.1846640054	posed as
0.1846486355	temporal models
0.1846045827	single algorithm
0.1845975148	physics based models
0.1845882645	natural distribution
0.1845697613	between subjects
0.1845687419	a user friendly
0.1845635412	mapped to
0.1845630600	linear dependencies
0.1845522478	based social
0.1845455792	re train
0.1845343175	unknown linear
0.1845325994	easily combined
0.1845112508	the recognition of
0.1845112508	the clustering of
0.1845092451	proposed kernel
0.1845028212	datasets illustrate
0.1844907720	few training samples
0.1844818352	$ \ varepsilon 0
0.1844547903	+ \ kappa
0.1844536160	challenge in reinforcement
0.1844434961	two major
0.1844434677	nature of
0.1844314787	networks generalize
0.1844276569	non experts
0.1844255121	interpretable neural
0.1844195842	the activations of
0.1843945369	based on convex optimization
0.1843934974	arises from
0.1843888338	large state
0.1843884149	effectiveness of
0.1843775127	spatial distribution
0.1843623932	end to end model
0.1843537924	competitive performance compared to
0.1843524963	systems theory
0.1843335004	problems arising in
0.1843245285	convergence rates for
0.1843224385	open source library for
0.1843201480	finite markov
0.1842769995	large amounts of training
0.1842579252	overview of
0.1842556531	achieving performance
0.1842496310	online convex optimization with
0.1842454073	large output
0.1842252314	sub structures
0.1842248668	framework designed
0.1841760844	presented approach
0.1841585351	an extensive experimental
0.1841535243	multiple benchmark
0.1841513638	non identifiability
0.1841226667	time step
0.1840982523	recovery guarantees for
0.1840914204	range of applications
0.1840854794	bayesian parameter
0.1840833035	trained machine learning
0.1840515888	an empirical analysis
0.1840311920	90 accuracy
0.1840276749	limitations of existing
0.1840239783	reinforcement learning with
0.1840203309	a scale mixture
0.1839980497	joint feature
0.1839783189	= \
0.1839499576	non sparse
0.1839382184	non constant
0.1839376679	challenge in developing
0.1839304634	suitable for
0.1839145190	fail to
0.1838910902	no ground truth
0.1838395406	standard learning
0.1838362375	cell data
0.1838025581	for autonomous driving
0.1837995971	bias towards
0.1837721685	to improve
0.1837707749	as diverse as
0.1837608160	supervised image
0.1837027788	linear latent
0.1837007009	provide estimates
0.1837004400	the frequency of
0.1837004400	the embeddings of
0.1836955915	a novel
0.1836835380	driven techniques
0.1836672891	in settings with
0.1836623428	the minimum description length principle
0.1836480957	by exploiting
0.1836228937	different scales
0.1836194450	convergence analysis of
0.1835944628	several real world applications
0.1835724728	gradient techniques
0.1835476397	causal machine
0.1835221185	algorithms to solve
0.1835117900	small image
0.1835107700	a variational approach
0.1834910627	dynamic behavior
0.1834825771	only marginally
0.1834769792	aware training
0.1834760500	backpropagation through
0.1834738810	a large number
0.1834661522	applying reinforcement
0.1834492964	better performance than
0.1834251368	convex approach
0.1834203368	the expected information gain
0.1834195842	the directions of
0.1834195842	the modelling of
0.1834195842	the image of
0.1834127773	the chain rule
0.1833987193	recommendation models
0.1833845902	not always
0.1833824254	close to 1
0.1833762193	dimensional stochastic
0.1833554119	advances in deep neural networks
0.1833475416	objective value
0.1833234588	10 100
0.1833183463	a systematic
0.1833165138	convergence time
0.1833132946	task 1
0.1833113300	brought by
0.1832863830	a holistic
0.1832649181	neighbor regression
0.1832394542	representations of high dimensional
0.1831857132	and robustness in
0.1831771746	bayesian theory
0.1831751551	to understand
0.1831714345	\ _ i = 1
0.1831667827	this paper studies
0.1831383649	two distinct
0.1831344137	variant of
0.1831180729	neural networks with relu
0.1831053762	popular neural
0.1830954737	solve tasks
0.1830735229	inference about
0.1830391382	a decision theoretic
0.1830373266	a low dimensional
0.1830341639	handle high
0.1830320345	a fully automated
0.1830244980	demonstrate promising
0.1830188767	participate in
0.1830083259	without resorting to
0.1829368576	results presented
0.1828913790	\ cdot \ mathrm
0.1828894253	information metric
0.1828728063	the proposed method improves
0.1828618396	$ k = 1
0.1828607783	framework to model
0.1828592074	mixtures of
0.1828528372	timely detection of
0.1828484893	an energy based model
0.1828433806	a simple algorithm
0.1828286890	model outperforms existing
0.1828257284	significant amounts of
0.1827974677	question of whether
0.1827943884	multiple synthetic
0.1827890045	contributing to
0.1827839629	processing task
0.1827802973	approach for improving
0.1827766223	models on different
0.1827726592	a fine grained
0.1827626636	an ideal
0.1827351857	\ to \ mathbb
0.1827308452	an unbiased estimator
0.1827224859	performance competitive
0.1827116467	rely on strong
0.1827082312	optimal robust
0.1827079389	scale machine learning
0.1826991503	superior classification
0.1826415335	scalable optimization
0.1826410567	the proposed
0.1826310629	each row
0.1826300067	1 shot
0.1826180210	simultaneous estimation of
0.1825951233	bayesian statistical
0.1825921788	class image
0.1825882921	of high interest
0.1825783081	to regularize
0.1825724143	information into account
0.1825520404	learning fashion
0.1825416247	seek to
0.1825395190	extended to
0.1825279399	pretrained models
0.1825246825	g mean
0.1825117900	general statistical
0.1825055035	deep learning based method for
0.1824995928	reduced model
0.1824961311	generated and real
0.1824936512	order to predict
0.1824914100	superior to existing
0.1824878678	a vis
0.1824633230	most preferred
0.1824603925	ii errors
0.1824392088	problem of minimizing
0.1824195842	the samples of
0.1824011350	achieves better results
0.1823877356	generate multiple
0.1823737077	message passing for
0.1823629987	competitive with state of
0.1823617900	linear computational
0.1823500432	likelihood of observed
0.1823234506	in practice
0.1823221898	proposed active
0.1822709640	the restricted isometry property
0.1822701986	low generalization
0.1822682346	existing matrix
0.1822349444	level representation
0.1822271280	layer features
0.1822230636	$ n
0.1822165690	for classification of
0.1822083850	either ignore
0.1821857132	and safety of
0.1821786459	$ insensitive
0.1821695842	$ a ^
0.1821527545	more informative
0.1821124534	problem of designing
0.1820882072	= f
0.1820766897	use cases
0.1820648613	non smoothness
0.1820562315	a context aware
0.1820407648	properties of
0.1820218853	complex input
0.1820039452	a review
0.1819912848	each cluster
0.1819905582	10 times
0.1819830376	empirical evaluations on
0.1819786490	with constant step size
0.1819699185	consists in
0.1819462230	sub networks
0.1819438185	identify groups of
0.1819058062	common deep
0.1818962649	with provable guarantees
0.1818822644	a data driven manner
0.1818779677	data needed
0.1818610398	standard cross
0.1818554932	received little
0.1818493530	detecting anomalies in
0.1818316373	performance computing
0.1818281021	supervised graph
0.1817947672	layer deep
0.1817505642	light into
0.1817422836	adaptation algorithm
0.1817256282	of great importance
0.1817005161	general tool
0.1816932435	passes through
0.1816592281	experimental results on benchmark
0.1816562766	art techniques
0.1816269325	by adding
0.1816160025	automated model
0.1816103877	the inverse covariance matrix
0.1816072064	$ \ x_i \
0.1815964550	a practical approach
0.1815846783	the bethe
0.1815677048	aim to
0.1815603244	as high as
0.1815525206	performance improves
0.1815508013	a linear convergence rate
0.1815411550	building predictive models
0.1815059125	dnns trained with
0.1815004920	modelled by
0.1814848761	robust to missing
0.1814709811	first stage
0.1814275650	time interval
0.1814211179	scale optimization
0.1814200630	each leaf
0.1814195842	a layer of
0.1814195842	the observations in
0.1814102629	the kl divergence
0.1814028943	combinations of
0.1814028132	non conjugate models
0.1813890972	an exponential
0.1813874101	to regulate
0.1813724152	for high dimensional data
0.1813601737	a single input
0.1813503021	inference in probabilistic
0.1813443100	learning on graphs
0.1813307822	provide theoretical guarantees on
0.1813268824	sensitive to
0.1813240504	cnn models
0.1813102605	uniformly over
0.1813088803	the real system
0.1812962571	network to predict
0.1812825634	step process
0.1812713021	imitation learning via
0.1812695216	gnn models
0.1812693227	challenging to train
0.1812470074	standard online
0.1812365817	proposed criterion
0.1812266828	the elastic net
0.1812239395	non convex problem
0.1812181114	typically rely on
0.1812161401	an intuitive
0.1811967009	in parallel on
0.1811717394	methods focus
0.1811639076	a graphon
0.1811397572	originally developed for
0.1811167330	much more
0.1811166768	specific case
0.1811156100	data limit
0.1811148304	unbiased estimates of
0.1811141166	up to two orders of magnitude
0.1811122154	practical machine
0.1811091304	by means of
0.1810674311	even faster
0.1810659506	a streaming fashion
0.1810621277	for unsupervised anomaly detection
0.1810557301	optimal predictor
0.1810432649	experiments on two real
0.1810395705	a recent proposal
0.1810348188	\ hat b
0.1810166422	while avoiding
0.1809948600	max problem
0.1809670522	method to solve
0.1809414156	\ kappa ^
0.1809171631	diverse collection of
0.1809117900	efficient technique
0.1809058928	physical system
0.1808884272	a learnable
0.1808866172	| \ theta
0.1808828063	does not exist
0.1808578403	terms of time and
0.1808514420	ordinary least
0.1808353129	an extensive study
0.1808252441	a new
0.1808165791	technique to improve
0.1808119541	variety of domains
0.1807976397	error compared
0.1807700343	specific types
0.1807484944	achieving similar
0.1807480717	a spectral algorithm
0.1807460627	very deep
0.1807343279	upper and lower bounds on
0.1807032484	including synthetic
0.1806967009	as simple as
0.1806733040	deep understanding
0.1806626222	independence models
0.1806581586	very sparse
0.1806367775	trained with
0.1806186781	volatility models
0.1806071242	images using deep
0.1805835753	comparable to or better than
0.1805814030	sample tests
0.1805749688	time evolution
0.1805666086	performs on par with
0.1805367900	linear dynamic
0.1804912029	critical value
0.1804878827	fixed data
0.1804877356	multiple sequence
0.1804697043	based neural architecture
0.1804581190	evaluation time
0.1804398369	applied to predict
0.1804195842	on data with
0.1803757072	support systems
0.1803603740	learning domains
0.1803122154	challenging real
0.1803017280	for large scale regression
0.1802932047	\ sqrt h ^
0.1802629246	sum stochastic
0.1802461179	accurate deep
0.1802417693	backed by
0.1802346690	first order stationary
0.1802274796	evaluated against
0.1802274206	provide higher
0.1801857132	the centers of
0.1801857132	the interests of
0.1801835232	data sampled
0.1801799588	as small as
0.1801730599	layers in neural
0.1801625498	few hours
0.1801552229	trained to maximize
0.1801458790	two regimes
0.1800911360	efficient markov chain
0.1800888927	the uci machine learning repository
0.1800851765	modern machine learning models
0.1800809290	two point
0.1800655233	classification of time series
0.1800485768	enabled by
0.1800455842	a critical issue
0.1800257604	the multinomial logit
0.1799897434	one round
0.1799408387	empirical results on
0.1799268174	to mitigate
0.1799171631	reducing training time
0.1799081565	approach achieves state of
0.1798580521	an exponential family
0.1798447411	widely used in machine learning
0.1798199343	an rbm
0.1797797720	scale graphs
0.1797670967	common deep learning
0.1797618277	art model
0.1797553716	attributed to
0.1797505603	clustering method based
0.1797086616	difficult to specify
0.1797030590	up to 50
0.1796819821	control framework
0.1796777065	product kernel
0.1796712826	selected by
0.1796120445	under realistic
0.1796103530	fewer than
0.1795871318	proposed mechanism
0.1795771858	powered by
0.1795647123	nonlinear models
0.1795645422	learning capability of
0.1795586062	$ \ rho_
0.1795573504	results competitive
0.1795464806	without resorting
0.1795315713	driving systems
0.1795289028	the kalman filter
0.1795128558	published work
0.1794938028	best known
0.1794829082	hybrid training
0.1794821756	expensive training
0.1794656415	matrix completion based
0.1794626324	the target domain
0.1794004047	too large
0.1793774836	ensured by
0.1793608460	improves existing
0.1793592498	all pairs
0.1793452968	bound analysis
0.1793441281	approach for solving
0.1793088803	in statistics and
0.1793083382	proposed multi
0.1792987735	common technique
0.1792865312	important goal
0.1792242329	observed time series
0.1792002071	special cases of
0.1791857132	of patients in
0.1791722110	a statistical framework
0.1791543029	singular vectors of
0.1791485421	different types of
0.1791231786	of vital importance
0.1791230561	spectral clustering based
0.1791166768	small generalization
0.1791136211	theory to derive
0.1790811790	more transparent
0.1790548168	real world data sets show
0.1790436066	built from
0.1790169875	arbitrary number
0.1789823917	extensive experiments on real
0.1789691703	directly related
0.1789627606	order approximation
0.1789592561	tens of
0.1789540620	give rise
0.1789304994	a huge number
0.1789266755	retrieved from
0.1789220123	the present study
0.1788949230	scales linearly in
0.1788930893	algorithm for recovering
0.1788764775	presence absence of
0.1788745769	multiple decision
0.1788626123	symbolic models
0.1788354712	optimal experimental
0.1788239704	empirical results indicate
0.1787979364	formalized as
0.1787934516	method for extracting
0.1787857930	free inference
0.1787716853	resulting network
0.1787589016	computationally efficient algorithms for
0.1787569192	lack of
0.1787544513	temporal deep
0.1787429734	a gaussian process
0.1787119224	| \ beta
0.1786906189	method outperforms state of
0.1786829201	a random forest classifier
0.1786822015	processing problems
0.1786778948	data driven approach for
0.1786695842	the image and
0.1786695842	the phase of
0.1786695842	and generalization in
0.1786650744	reduces training
0.1786433418	study investigates
0.1786366396	an iterative procedure
0.1786125176	large deep neural
0.1786095444	convergence compared
0.1785888469	conducted on real
0.1785750101	online variational
0.1785714782	efficient architecture
0.1785527310	the art techniques
0.1785477143	based feature extraction
0.1785436787	proposed to tackle
0.1785324836	named deep
0.1785206336	search technique
0.1785172756	averaging over
0.1785112423	the training data distribution
0.1785087913	substantially better
0.1785001275	using artificial neural
0.1784899258	required for training
0.1784602357	ability to model
0.1784413684	faster convergence than
0.1784389388	driven approaches
0.1784025667	actions taken
0.1783898833	variational model
0.1783593474	variational algorithm
0.1783451010	a hilbert space
0.1783442977	\ | x \
0.1783086757	nonparametric statistical
0.1782822218	the pac bayesian
0.1782809398	dependency among
0.1782766223	two methods of
0.1782760835	upper bounds for
0.1782597922	systems play
0.1782597543	accurate method
0.1782581255	dimensional graph
0.1782399720	detection in high dimensional
0.1782278697	log \ frac
0.1781936454	neural networks generalize
0.1781857132	the approach with
0.1781857132	the health of
0.1781857132	the instances of
0.1781857132	the rewards of
0.1781559920	network decisions
0.1781442300	including cifar
0.1781157475	an exact
0.1781033550	attributable to
0.1780953471	for machine learning in
0.1780839170	samples compared
0.1780831579	terms of predictive performance
0.1780581607	for reinforcement learning in
0.1780388687	an unknown
0.1780276566	multiple sets
0.1780012142	learn latent
0.1779923130	deep long
0.1779776466	transitions between
0.1779717052	compressed sensing with
0.1779607736	accurate predictive
0.1779606000	based on machine learning
0.1779601433	bayesian optimization with
0.1779488559	estimation of
0.1779349794	value thresholding
0.1779198650	accuracy compared
0.1779151641	confirmed by
0.1779128751	first principle
0.1779117643	more faithful
0.1779069210	potentially useful
0.1778987381	provide complementary
0.1778930313	adversarial examples generated by
0.1778826930	level optimization
0.1778616900	rarely used
0.1778578403	learning and computer
0.1778524718	automatic detection of
0.1778471015	similarities among
0.1778365827	the fact
0.1778353937	$ \ kappa =
0.1778314030	important property
0.1778100474	point equation
0.1778088803	and treatment of
0.1778088803	in domains with
0.1777868496	different resolutions
0.1777807490	comparative evaluation of
0.1777802590	performance on mnist
0.1777763578	statistical limits of
0.1777745692	noisy version
0.1777626475	framework combines
0.1777588688	gender bias in
0.1777566809	described by
0.1777394552	gains over
0.1777244927	using machine learning methods
0.1776967009	as efficiently as
0.1776901663	\ | \ hat
0.1776695842	the treatment and
0.1776695842	the scale and
0.1776642476	well specified
0.1776612152	obtain reliable
0.1776559920	yields results
0.1776337534	level language
0.1775854964	improvement in performance
0.1775732455	improves sample
0.1775698541	\ sum_ i =
0.1775628433	the multi armed bandit problem
0.1775611969	the data generating distribution
0.1775462213	stochastic gradient descent with
0.1775459092	max kernel
0.1775443239	smoothing problem
0.1775388000	communication system
0.1775256779	based transfer learning
0.1775162970	mitigated by
0.1775055999	number of floating
0.1774881707	growing number of
0.1774830797	art algorithm
0.1774667870	justified by
0.1774658115	and fairness of
0.1774556669	more or less
0.1774510609	based measure
0.1774467009	of entities and
0.1774440312	approximate complex
0.1774174898	th order
0.1774094361	lack of robustness
0.1773299630	$ d_1
0.1773201652	percentage of
0.1773086757	entropy objective
0.1772581481	number of times
0.1772391806	quality of generated
0.1772340489	an incentive
0.1772327066	^ 2 \ epsilon
0.1772155365	^ l
0.1771976212	many modern applications
0.1771926508	specific representations
0.1771918631	a low dimensional representation
0.1771645576	compared to state of
0.1771343175	simple probabilistic
0.1771183407	attention models
0.1771133816	underlying markov
0.1771076620	informed neural
0.1770955220	series based
0.1770814030	solve challenging
0.1770340164	large number of variables
0.1770228991	consistently outperforms other
0.1770037206	associated with
0.1769889058	the uci repository
0.1769660696	exploration problems
0.1769604502	unsupervised domain adaptation with
0.1769142997	fast method
0.1768962757	a 7
0.1768867090	faster to compute
0.1768866094	general neural
0.1768727376	assume access to
0.1768627174	similar to
0.1768562056	an internal
0.1768461086	\ sigma ^
0.1768414449	parametric estimation
0.1768390882	$ n ^ 1
0.1768314030	obtain regret
0.1768143553	a general
0.1767958934	an easy
0.1767777990	combining information
0.1767681958	likelihood methods
0.1767644950	advances in
0.1767445740	minimization methods
0.1767301107	varying networks
0.1767248668	alternative framework
0.1767222855	generalization across
0.1767024273	federated machine
0.1766980873	vae models
0.1766967009	as important as
0.1766927093	this study presents
0.1766872445	evaluation based
0.1766785725	thereby reducing
0.1766695842	the variables of
0.1766695842	the real and
0.1766488735	presence of label noise
0.1766427491	built on
0.1766344023	new physics
0.1766279063	comparable predictive
0.1766025886	set of tasks
0.1765952238	computer vision and machine learning
0.1765927221	state space model for
0.1765843175	space embeddings
0.1765608511	\ log p
0.1765331585	to train deep neural networks
0.1765281882	subject to constraints
0.1765269297	recent breakthroughs in
0.1765267069	fast implementation
0.1765238450	inference over
0.1765137332	independent of
0.1764980695	of information in
0.1764872773	wide variety of applications
0.1764826903	estimation using
0.1764467009	in cases of
0.1764254206	linear temporal
0.1764201692	propose computationally
0.1764075709	sparse latent
0.1764036100	limited availability of
0.1764027827	$ regularized logistic
0.1763852405	a scalable approach
0.1763631189	logarithmically with
0.1763332069	\ sum_ t
0.1763305982	zero mean gaussian
0.1763213542	$ q
0.1762976066	with missing values
0.1762889627	autoencoder framework
0.1762679743	dimension d
0.1762597019	a finite number of iterations
0.1762379760	adapts to
0.1762373451	main methods
0.1762359511	a deep generative
0.1762228363	still remain
0.1762063704	leverage information
0.1761967009	by training on
0.1761857132	time linear in
0.1761743088	not only
0.1761675829	short paper
0.1761494055	non convex loss
0.1761253430	blessings of
0.1761146147	variable regression
0.1761057019	allowed to
0.1761036263	validation experiments
0.1761015554	in large part
0.1760925145	extraction model
0.1760834870	refer to as
0.1760709577	popular network
0.1760660598	powerful deep
0.1760638354	representations of data
0.1760593107	better empirical performance
0.1760569181	hybrid network
0.1760515333	away from
0.1760500104	questions related
0.1760383302	essential step
0.1760067698	numerical linear
0.1759781005	based metric
0.1759725401	the world's largest
0.1759686252	acquired from
0.1759630805	wide spectrum of
0.1759567469	paper demonstrates
0.1759561108	simple neural
0.1759555869	crucial for
0.1759529111	important in practice
0.1759233327	y =
0.1759060541	deterministic neural
0.1758797778	to maximize
0.1758543719	non asymptotic oracle
0.1758226597	an agent's
0.1758199508	learning for improving
0.1758045322	low dimensional representation of
0.1757797017	construct confidence
0.1757749898	provide simulation
0.1757565952	a random sample
0.1757348586	vector approximate
0.1757287087	$ g
0.1757180591	these challenges
0.1756777548	learning to generate
0.1756769045	problem of identifying
0.1756721373	acting on
0.1756229679	on demand
0.1755965013	simple numerical
0.1755906312	production system
0.1755836093	framework to handle
0.1755819144	policy learned
0.1755797720	learn highly
0.1755667566	federated learning over
0.1755648173	distribution detection
0.1755603244	as large as
0.1755479700	$ \ approx
0.1754929893	a cost effective
0.1754761126	as effective as
0.1754723297	identification using
0.1754475307	compared to recent
0.1754215248	perform approximate
0.1754176090	parameters to tune
0.1754015253	examples generated
0.1753749024	and testing of
0.1753749024	in applications of
0.1753749024	and testing on
0.1753721191	huge number of
0.1753700365	$ x \ in \ mathbb
0.1753629008	1 5
0.1753519550	developed to learn
0.1753515024	no extra
0.1753377979	produces high
0.1753283418	an information theoretic lower
0.1753192965	in terms of
0.1753155930	the above mentioned
0.1753088803	and validation of
0.1753082158	a reinforcement learning based
0.1752963724	order network
0.1752934535	selection method based on
0.1752891096	additional unlabeled
0.1752805113	the proposed algorithm outperforms
0.1752531920	an indispensable
0.1752371979	contain rich
0.1752092991	free approaches
0.1752038395	performance comparable to
0.1752023833	learning application
0.1751997753	network interpretation
0.1751991635	a pre processing step
0.1751983593	the art graph kernels
0.1751861030	the machine learning literature
0.1751803138	invariant risk
0.1751730410	proposed attention
0.1751722986	several real world datasets
0.1751644772	including language
0.1751622997	quality prediction
0.1751618288	linear regression model with
0.1751334763	much better
0.1751259344	appears to
0.1751235818	scale benchmark
0.1751135883	gan loss
0.1751113018	weighted version of
0.1751048208	$ n \ ll
0.1751029537	automl system
0.1750878442	propose to combine
0.1750809905	tremendous success in
0.1750422238	more generally
0.1750325547	a priori knowledge
0.1750306662	standard data
0.1750113620	intuitive interpretation of
0.1749968940	function value
0.1749883614	\ log \ left
0.1749731323	in order to avoid
0.1749544570	sampling inference
0.1749443708	deep neural networks via
0.1749389167	geometric deep
0.1749257496	to generate adversarial examples
0.1748922107	function defined
0.1748578403	performance to other
0.1748545741	$ y_i
0.1748466476	class support
0.1748426124	complete set of
0.1748353876	reduction algorithms
0.1748134624	scale applications
0.1748088803	of convergence for
0.1747950510	requiring less
0.1747946896	the thesis
0.1747910263	achieves linear
0.1747897362	in science and
0.1747604901	for multi class classification
0.1747569275	level semantic
0.1747540511	bounded away from
0.1747291551	world systems
0.1747151200	relatively little work
0.1747000148	does not scale well
0.1746942089	important to ensure
0.1746835563	incorporation of
0.1746808172	standard sparse
0.1746695842	as functions of
0.1746686251	event simulation
0.1746668016	series segmentation
0.1746533898	randomized neural
0.1746440678	$ y =
0.1746436738	regime changes
0.1746430174	choice models
0.1746199274	based density
0.1746193256	very time consuming
0.1745913470	new classes
0.1745889524	responds to
0.1745886289	$ d =
0.1745766575	lipschitz constant of
0.1745705278	non linear dynamical
0.1745585916	mainly focuses on
0.1745290373	meaningful way
0.1745198819	pass through
0.1745022083	mean vector
0.1744948650	scale image
0.1744773671	sensing problems
0.1744484680	non negative tensor
0.1743892457	not seen during training
0.1743711352	as efficient as
0.1743659047	consistency between
0.1743333435	rank representations
0.1743282129	also discuss
0.1743202969	shown significant
0.1743175336	performs significantly
0.1743126985	an attentive
0.1743116789	a general theory
0.1743103926	handle large
0.1742896000	easily combined with
0.1742787087	$ l
0.1742658284	only positive
0.1742292348	combining data
0.1742236374	an elementary
0.1741966922	based hybrid
0.1741937211	class sample
0.1741857132	from data with
0.1741695014	bounds for
0.1741675225	powerful neural
0.1741532368	variance gradient
0.1741526739	the log likelihood function
0.1741430575	this phenomenon
0.1741418306	neural message
0.1741397571	based multi
0.1741333023	direct application of
0.1741156902	art results
0.1741064101	aspect of
0.1740923211	form of regularization
0.1740624472	algebraic structure of
0.1740474677	focus only on
0.1740139662	solving convex
0.1740034772	learning baselines
0.1740002274	old tasks
0.1739749079	dependency between
0.1739461178	improvements of up to
0.1739442629	a likelihood ratio
0.1739195285	two layers
0.1739133501	sub sequences
0.1739093616	for deep learning in
0.1739089463	the weisfeiler lehman
0.1739000081	applies to
0.1738960899	using deep
0.1738408068	approach to identify
0.1738369456	the proposed algorithms
0.1738353121	based language
0.1738212335	similar or better
0.1738050909	local cost
0.1737944740	a quasi newton
0.1737930114	recovery of sparse
0.1737881674	based machine learning
0.1737809309	very high dimensional
0.1737689376	an enhanced
0.1737593782	well calibrated uncertainty
0.1737534185	a 50
0.1737425813	net regularization
0.1737411777	process latent variable
0.1737141156	perform significantly better
0.1737028985	make predictions about
0.1736901876	a two stage
0.1736695842	in theory and
0.1736561255	by employing
0.1736547063	a lower dimensional space
0.1736138446	the proposed model achieves
0.1736100983	a multi layer perceptron
0.1736022651	an equivalence
0.1736005470	as examples of
0.1735585373	$ \ mathcal l ^
0.1735360580	two real world
0.1734980695	between training and
0.1734290836	level image
0.1734185123	deep neural networks with
0.1734157060	trade off between accuracy and
0.1734120543	complex time series
0.1734065789	challenging case
0.1733980204	good agreement with
0.1733922996	simple distribution
0.1733781070	comparisons between
0.1733591718	existing bayesian
0.1733276904	artificial and real datasets
0.1733191630	making systems
0.1732976560	paper offers
0.1732487154	regions of interest
0.1732275799	not always available
0.1732222917	grid like
0.1731946260	trained convolutional
0.1731889167	based calibration
0.1731852292	competitive with
0.1731831134	this gap
0.1731563578	thorough evaluation
0.1731561653	efficient deep neural
0.1731488111	prove regret
0.1731478576	set domain adaptation
0.1731345248	to produce high quality
0.1731171561	learning behavior
0.1731136032	a constant fraction
0.1730928211	require prior
0.1730880547	to compress
0.1730600876	improved error
0.1730541362	based hierarchical clustering
0.1730525083	the training process
0.1730341271	passing neural networks
0.1730278320	world setting
0.1730210054	constrained markov
0.1730065515	fundamental machine
0.1729971366	proposed kernels
0.1729937653	type of attack
0.1729836167	a pre trained model
0.1729288052	interaction features
0.1729097018	current neural
0.1728961195	speedups over
0.1728881851	the rows and
0.1728319999	major limitation of
0.1728270189	none of
0.1728226214	points belonging to
0.1728164139	common cause
0.1728118222	challenging dataset
0.1728116814	demonstrate effectiveness
0.1727920786	amount of available data
0.1727887303	class of problems
0.1727831086	adaptation problems
0.1727717091	higher prediction
0.1727706842	the plackett luce
0.1727523663	important area
0.1727453283	first and second
0.1727006433	serving as
0.1726922987	$ armed bandit
0.1726678277	gradient tree
0.1726584916	during execution
0.1726337662	developments in deep learning
0.1726104755	many important applications
0.1726032489	warning system
0.1726012043	in real world settings
0.1725887086	reasonable amount
0.1725590741	multiple machine learning
0.1725461179	based energy
0.1725257301	meant to
0.1725246752	discovered by
0.1725177406	$ w
0.1725120287	in india
0.1725098239	an upper bound on
0.1724898141	trained language
0.1724880184	time series dataset
0.1724831357	detail records
0.1724701424	a distributed
0.1724524921	level optimization problem
0.1724469290	based representation learning
0.1724245585	learning based approach for
0.1724224571	extract features from
0.1723902403	paper takes
0.1723835889	active learning framework for
0.1723699680	dynamic models
0.1723636880	likelihood inference
0.1723336626	requiring only
0.1723311114	certain regimes
0.1723125522	out of distribution inputs
0.1723089692	fast neural
0.1722554472	dependencies across
0.1722251828	conditions required
0.1722103275	original gan
0.1721856309	corrupted by
0.1721785891	n \ sum_
0.1721726051	of models from
0.1721688830	a significant challenge
0.1721649954	naturally leads to
0.1721518242	order to reduce
0.1721477048	comparable to
0.1721312483	$ c ^ *
0.1720937937	not just
0.1720859364	further investigations
0.1720714426	strong model
0.1720642693	able to generate
0.1720590847	more specifically
0.1720567307	key building
0.1720405863	number of candidate
0.1720131820	strategy to reduce
0.1720095646	95 \
0.1719960479	from social media
0.1719900573	world tasks
0.1719881093	effective algorithm
0.1719851246	computer networks
0.1719725551	no clear
0.1719582279	field variational inference
0.1719477618	these trade offs
0.1719455289	learning algorithm based
0.1719185858	making tasks
0.1719167382	each user
0.1719030862	^ k
0.1719011786	many natural language processing
0.1718925916	automated approach
0.1718856728	better results than
0.1718792629	tight bounds for
0.1718587733	the linear and
0.1718440361	a factor graph
0.1718389591	powerful approach
0.1718237662	a long short
0.1718228690	wise adaptive
0.1717981507	information related
0.1717919228	able to recover
0.1717752499	distributed version
0.1717721685	to predict
0.1717721685	to reduce
0.1717563498	efficient algorithmic
0.1717551291	based correlation
0.1717523521	each year
0.1717296187	the ib
0.1717251089	level attributes
0.1717114609	non asymptotic bounds
0.1716915896	bayesian deep neural
0.1716885123	popular tool
0.1716806006	$ p_i
0.1716747485	mainly focused
0.1716724293	significant improvements in
0.1716616146	massive number of
0.1716566313	looking at
0.1716543068	widely used datasets
0.1716542978	rank model
0.1716327362	scalable framework
0.1716244279	the art solvers
0.1716232171	no restrictions
0.1715748100	recognized as
0.1715291321	q functions
0.1715246761	by applying
0.1714982181	an ever growing
0.1714938798	while offering
0.1714784134	learning based methods for
0.1714707195	bounds depend on
0.1714551948	efficiently sample
0.1714469715	as random forests and
0.1714173278	maximum likelihood estimation of
0.1714134624	classical deep
0.1714068824	designed to
0.1714054575	existing kernel
0.1714033602	to select
0.1713899303	lower bound for
0.1713853808	including node
0.1713808731	a discriminative model
0.1713637418	an ode
0.1713527306	two components
0.1713382298	last decades
0.1713349050	network to map
0.1713195572	good quality
0.1713042528	deep spiking
0.1712963793	$ \ | \ hat
0.1712898434	a data efficient
0.1712775075	range of
0.1712771993	efficient alternative
0.1712702388	a low rank
0.1712681623	problems in machine
0.1712560077	require prior knowledge of
0.1712551291	likelihood framework
0.1712468835	on social media
0.1712421014	region methods
0.1712373090	general theoretical
0.1712172606	informative about
0.1712148173	performance achieved
0.1712095700	commonly referred to as
0.1712048756	achieve significantly better
0.1711980564	training multi
0.1711722662	graphical representation of
0.1711642997	consistent model
0.1711324703	entropy loss function
0.1711285325	learning based algorithm
0.1711250343	neighbor graph
0.1711097094	an option
0.1710861693	system of linear equations
0.1710775944	imposed on
0.1710749519	the input space
0.1710690603	and machine learning to
0.1710661112	great potential for
0.1710464092	explore whether
0.1710421014	demonstrate improvements
0.1710134624	network implementation
0.1710029441	approach consists
0.1709984784	a kernel based
0.1709846371	robust to small
0.1709690401	the same
0.1709631703	linear relations
0.1709608647	resulting methods
0.1709565308	conventional machine
0.1709558691	the art performances
0.1709367297	under marginalization
0.1709270801	bandits with
0.1709203670	$ denote
0.1709116025	based deep reinforcement learning
0.1709009620	independent feature
0.1708992133	between real and
0.1708978603	an rl agent
0.1708968039	on multiple real world
0.1708418456	new possibilities
0.1708385873	forward network
0.1708329572	fundamental limits on
0.1708290012	to tackle
0.1707869184	log ^ 2
0.1707783237	data log
0.1707719379	efficient iterative
0.1707476652	numerical experiments on
0.1707391776	conducted on
0.1707328970	p norm
0.1707165514	a python package
0.1707033246	better exploration
0.1706820421	future work
0.1706806006	$ m_
0.1706581473	correlated random
0.1706516188	10 years
0.1706255687	quantity of data
0.1705975911	terms of precision
0.1705751641	satisfied by
0.1705487999	dual optimization
0.1705336286	least squares solution
0.1705323065	an ensemble approach
0.1705202342	by replacing
0.1705120948	the input data
0.1704961328	then combine
0.1704880664	a low rank tensor
0.1704878292	model input
0.1704521373	begin with
0.1704315825	description of
0.1704244380	for sparse and
0.1704244380	for binary and
0.1704221972	\ hat \ theta
0.1704175602	a large dataset
0.1704137475	challenging to learn
0.1703942965	a 30
0.1703869401	does not depend on
0.1703780878	with relu activations
0.1703761001	each stage
0.1703555833	based trajectory
0.1703495205	avoided by
0.1703462426	to detect
0.1703435312	more predictable
0.1703420192	finite mixtures of
0.1703173019	range of tasks
0.1703028899	the stiefel manifold
0.1702940954	\ log ^
0.1702905518	obtained via
0.1702832097	a critical component
0.1702592677	collections of
0.1702362818	validated on
0.1702320609	learning new tasks
0.1702147650	understanding of
0.1702099101	exploit prior
0.1701857132	on synthetic data and on
0.1701783336	classifiers based
0.1701633967	applying machine
0.1701445061	+ b
0.1701382989	form solution
0.1700941327	original high
0.1700851539	an hmm
0.1700590826	samples required
0.1700518783	learning domain
0.1700475597	an application
0.1700447883	problem of classifying
0.1700287087	$ y
0.1700103365	major drawback of
0.1700082707	a non parametric
0.1700063491	iii dataset
0.1699866763	simple solution
0.1699733908	framework for
0.1699542442	do not need
0.1699538304	a pseudo likelihood
0.1699129216	novel class
0.1699105122	learn better
0.1698687670	sparsity and low
0.1698456171	range of problems
0.1698454706	compete with
0.1698448871	in many real world scenarios
0.1698398641	iterative machine
0.1698096034	ij \
0.1697921014	nn algorithm
0.1697748674	in safety critical applications
0.1697532311	m ^
0.1697504171	directed towards
0.1697495391	model for generating
0.1697473092	aims at learning
0.1697224728	significant problem
0.1697001290	the sample size
0.1696878928	model leads
0.1696782794	a fully automatic
0.1696654158	5 way
0.1696627846	based batch
0.1696577051	both simulated data and real
0.1696443659	three distinct
0.1696378419	representation of
0.1696162937	came from
0.1696102674	proposed to overcome
0.1695921521	achieve better results
0.1695902103	$ \ nabla
0.1695851213	a stationary point
0.1695843003	outperformed other
0.1695528755	large training data
0.1695475319	popular graph
0.1695358923	set estimation
0.1695224905	game between
0.1695194373	training of gans
0.1695071666	prior domain
0.1695026272	training method for
0.1694551948	specific parameter
0.1694420472	online learning with
0.1694384624	popular classification
0.1694166913	significantly affected by
0.1694116670	trained classification
0.1694018012	comment on
0.1693630325	issues related to
0.1693428667	representative data
0.1693033602	to minimize
0.1692917964	near optimal solutions
0.1692643745	a fully connected neural network
0.1692442150	a low dimensional latent space
0.1692366763	conditional image
0.1692186128	simplified version of
0.1692164550	0 1
0.1692007204	estimated by
0.1691865978	simple greedy
0.1691501094	confidence setting
0.1691482963	1 d
0.1691390093	class of functions
0.1691338395	datasets with many
0.1691214405	success in solving
0.1691087299	important tool
0.1690892718	on artificial and
0.1690885524	best policy
0.1690543537	after deriving
0.1690521564	large extent
0.1690419466	the u.s
0.1690289906	forecasting using
0.1690259463	a popular technique
0.1690020590	a timely manner
0.1689797018	great amount of
0.1689722266	extraction from
0.1689436267	a maximum likelihood estimator
0.1689433123	core problem
0.1689107197	$ means objective
0.1689056291	a sparsity inducing
0.1689033975	tuning methods
0.1688951926	insights from
0.1688950784	= 2
0.1688081114	1 \ lambda
0.1688030989	an open
0.1687962823	strategy based
0.1687901972	faster and more accurate than
0.1687733661	framework for testing
0.1687281071	appearing in
0.1687240906	thereby achieving
0.1687224728	proposed theory
0.1687202237	a generative
0.1687124727	inference phase
0.1687053049	types of data
0.1687041938	a crucial aspect
0.1686759625	method for performing
0.1686568144	a neural network based approach
0.1686294968	classifier trained on
0.1685899279	tasks in computer vision
0.1685794224	propose fast
0.1685758848	converges at
0.1685736105	$ _2
0.1685699479	deep learning system
0.1685682568	partitioning algorithm
0.1685529859	several benchmark data sets
0.1685493932	net based
0.1685429602	upper bound for
0.1685324220	reduce training time
0.1685129094	end to end graph
0.1684993144	parametric density
0.1684940592	b tests
0.1684799113	learned generative
0.1684671440	field of study
0.1684658115	from samples of
0.1684648890	non linear regression
0.1684578090	best known result
0.1684398720	the art baseline methods
0.1683978283	extension of
0.1683873754	generate large
0.1683850646	\ subset \ mathbb
0.1683805503	a mixture distribution
0.1683736296	the number of data points
0.1683692527	this study explores
0.1683491772	probabilistic topic
0.1683289050	considered as
0.1683266075	\ sqrt k
0.1683236197	in safety critical
0.1683158752	features derived
0.1683047775	finite number of
0.1682965554	the art alternatives
0.1682731111	unlabeled training
0.1682315053	two real world applications
0.1682041551	scalable method
0.1681985420	multi task learning for
0.1681753003	approaches perform
0.1681645123	more refined
0.1681612709	very costly
0.1681566486	samples with high
0.1681385178	a systematic approach
0.1681233647	complex nature
0.1681005548	the past decades
0.1680874152	a natural extension
0.1680604781	unsupervised meta
0.1680577510	field approximation
0.1680573817	series clustering
0.1680532316	method to approximate
0.1680246761	by combining
0.1679846391	learned feature
0.1679768352	successfully applied in
0.1679740387	\ rightarrow \ mathbb
0.1679708746	specific choice
0.1679634908	multiple image
0.1679568588	by imposing
0.1679317023	using wavelet
0.1679284865	small n
0.1679161716	defined on
0.1678939323	known in advance
0.1678922595	an encoder
0.1678889718	neural network methods
0.1678837154	thus enabling
0.1678694912	large amount of data
0.1678581646	sub problem
0.1678469927	techniques to reduce
0.1678384624	performance obtained
0.1678293616	of models in
0.1678244084	learned by
0.1678217958	product networks
0.1678177752	p 1
0.1678051291	precision networks
0.1677814557	the em algorithm
0.1677721685	to train
0.1677686768	broad range of
0.1677627324	subfield of
0.1677465759	driven framework
0.1677451556	towards improving
0.1677154778	leverage existing
0.1677065676	many nlp
0.1676859562	product approximation
0.1676802591	a teacher student
0.1676627003	expected generalization
0.1676446448	1 \ epsilon ^
0.1676371856	six real world
0.1675820541	requires less
0.1675770169	of accuracy in
0.1675657356	each pixel
0.1675425070	do not learn
0.1675193688	experiments on standard
0.1675012798	leverage knowledge
0.1674933500	cifar10 datasets
0.1674893953	to collect
0.1674836686	this paper analyzes
0.1674826899	feature selection via
0.1674782412	independence between
0.1674639888	conjugate models
0.1674517884	identified by
0.1674297866	norm loss
0.1673908238	approach relies on
0.1673881028	a statistical model
0.1673254968	incorporating information
0.1673102325	\ ll p
0.1673023470	method against
0.1672551291	methodology based
0.1672448344	the null hypothesis
0.1672400327	on real world data
0.1672366763	learn accurate
0.1672123632	structure in data
0.1672118883	compared to alternative
0.1671964947	a data driven
0.1671826349	procedures based
0.1671727686	association between
0.1671702969	bayes approach
0.1671698790	albeit at
0.1671596171	under uncertainty
0.1671574479	performance on real world
0.1671568728	encompasses many
0.1671563566	paper makes
0.1671249068	an interesting
0.1671173019	model achieves state of
0.1671079987	adversarial active
0.1670775858	prove upper
0.1670770169	and prediction in
0.1670627000	images generated
0.1670548926	a transformer based
0.1670305596	across individuals
0.1670103244	this analysis to
0.1670102087	output prediction
0.1670068957	proposed method significantly
0.1669959549	types of nodes
0.1669896259	incorporating side
0.1669888965	rnn based models
0.1669883123	virtue of
0.1669881017	instantiation of
0.1669857889	agent rl
0.1669659792	recent advances in machine
0.1669653064	generalize better than
0.1669581025	variation across
0.1669212139	new directions
0.1669126027	scale linearly with
0.1668960523	stable random
0.1668941797	tasks with different
0.1668850732	as few as
0.1668791551	series datasets
0.1668749024	in search of
0.1668740172	dimensional functions
0.1668724187	new perspective
0.1668686836	and imagenet show
0.1668686836	both simulations and
0.1668161671	classes of problems
0.1668106712	resistant to
0.1668065346	powerful generative models
0.1668004551	comparable classification
0.1667471698	a gaussian process regression
0.1667201092	elaborate on
0.1667008235	slightly different
0.1666480982	powers of
0.1666436786	adaptation approaches
0.1666064141	irregularly sampled time
0.1666000508	level training
0.1665886785	intrinsic properties of
0.1665856985	the art accuracy
0.1665790008	keeping data
0.1665662794	bandits under
0.1665447588	of noise in
0.1665368023	for deep learning on
0.1665301560	a small number of
0.1665200547	operates on
0.1665030450	the underlying data distribution
0.1664921797	data points into
0.1664892275	no closed form
0.1664648173	label datasets
0.1664538725	new facts
0.1664075771	an expert's
0.1663964516	proposed in literature
0.1663923130	proposed meta
0.1663907150	series dataset
0.1663790244	rigorous way
0.1663774635	generated content
0.1663702237	code publicly available
0.1663683675	$ 1 \ delta
0.1663577310	one hidden layer neural
0.1663447702	form solutions
0.1663161063	as far as
0.1662981448	$ a_i
0.1662671182	emphasis on
0.1662620113	experimenting with
0.1662536304	adaptive manner
0.1662515429	information needed
0.1662316980	resulting method
0.1662269401	does not imply
0.1662175039	cost compared
0.1661917602	binary cross
0.1661901433	approach to learning
0.1661898365	attached to
0.1661847392	a low dimensional vector
0.1661772223	result in
0.1661633108	following questions
0.1661266049	considerably better
0.1661164012	a model free
0.1661057689	no guarantees
0.1660957038	an alternate
0.1660867712	adapt to
0.1660812334	thompson sampling for
0.1660475151	comes from
0.1660462757	on par with
0.1660458042	latent network
0.1660296344	ability to accurately
0.1660194820	$ \ ell_ p
0.1660133378	well suited for
0.1660103244	for classification in
0.1660092677	proportion of
0.1660015573	standard multi
0.1659872352	existence and uniqueness of
0.1659710461	overall accuracy
0.1659648173	arbitrary network
0.1659622235	sum of
0.1659598763	minimal information
0.1659567009	to assess
0.1659528027	then optimize
0.1659509810	contrast to previous
0.1659302019	imperceptible perturbations to
0.1659256886	while attaining
0.1658910844	smaller set
0.1658780718	shortage of
0.1658776769	hidden layer neural networks
0.1658722371	change point detection in
0.1658392718	for smooth and
0.1658378601	a multi agent reinforcement learning
0.1658353526	new metrics
0.1658330459	flexible class
0.1657953501	minimal set
0.1657920164	an asynchronous
0.1657788913	variety of problems
0.1657534185	of 15
0.1657453750	^ 2 +
0.1657329653	end model
0.1657115929	2 norm
0.1656989448	\ max
0.1656589524	arising in
0.1656443232	expected information
0.1656408824	limited number of
0.1656291885	mathematical understanding of
0.1656079987	complex decision
0.1655805869	tool for
0.1655731111	samples obtained
0.1655672931	not too
0.1655524327	series of experiments
0.1655427860	resulting graph
0.1655369430	using deep convolutional
0.1655348876	outperform other
0.1655344952	produce low
0.1654983647	online influence
0.1654949974	larger and more
0.1654848726	dual algorithms
0.1654781607	for prediction in
0.1654781607	in accuracy for
0.1654738084	adversarial attacks on
0.1654558534	covered by
0.1654310598	to classify
0.1654193868	two layer networks
0.1654125413	to avoid
0.1654125030	resulting optimization
0.1654102056	a variety of
0.1653709040	to efficiently compute
0.1653587733	the positive and
0.1653587733	the lower and
0.1653510283	a feed forward neural
0.1653508168	of neural networks on
0.1653435171	based semi
0.1653293670	autoencoder trained
0.1653039483	the learning process
0.1652835902	derive generalization
0.1652721685	to generate
0.1652589016	volumes of data
0.1652536330	widely used methods
0.1652507872	well motivated
0.1652505303	constant fraction of
0.1652109076	efficient computational
0.1652049630	$ x_j
0.1652038103	resulting problem
0.1652027118	world environment
0.1651947191	a semiparametric
0.1651929868	more accurate predictions
0.1651914850	dependent linear
0.1651632447	set recognition
0.1651551954	widely available
0.1651516426	popular research
0.1651501311	significant improvement in
0.1651420095	state action value
0.1651185365	a nutshell
0.1650785952	distributed kernel
0.1650628481	the training data
0.1650493771	an ai
0.1650352938	accompanied with
0.1650227441	more precise
0.1649979387	quest for
0.1649867945	least squares loss
0.1649769990	by examining
0.1649661803	incompatible with
0.1649464533	simple recurrent
0.1649365627	similarity computation
0.1649345138	specific type
0.1649207748	point operations
0.1649045372	network ensembles
0.1649019532	thompson sampling with
0.1648736726	achieve low
0.1648587733	as in other
0.1648454906	of depth in
0.1648407572	improvements over existing
0.1648405189	addition to providing
0.1648402103	linear causal
0.1648294111	verified through
0.1648194495	order to improve
0.1648021154	performing methods
0.1647778025	a constrained optimization problem
0.1647575725	and efficient in
0.1647355864	data driven approach to
0.1647316928	steps towards
0.1647226510	a weak supervision
0.1646800995	study explores
0.1646694854	large number of samples
0.1646653523	determine if
0.1646632359	critical component
0.1646419379	empirical studies on
0.1646301049	an energy function
0.1646157854	under explored
0.1646146728	out of distribution samples
0.1646018626	necessary information
0.1645769176	approach to tackle
0.1645738482	long range dependencies in
0.1645488078	paper makes two
0.1645465458	to large scale problems
0.1645380305	parameter exponential
0.1645139662	traditional variational
0.1645132062	a significant margin
0.1645098528	general metric
0.1644881811	rank structures
0.1644637673	does not need
0.1644572077	scale networks
0.1644394564	hundreds of millions of
0.1644079987	modern high
0.1643633522	$ \ bar
0.1643587733	the image to
0.1643587733	the factors of
0.1643587733	the architecture to
0.1643405597	the mimic iii
0.1643348026	$ \ sigma ^ 2
0.1643344294	requires little
0.1643184525	\ ^ o
0.1643184071	to obtain
0.1643106650	p 0
0.1643041657	shorter time
0.1642639853	developed to improve
0.1642621275	a single layer
0.1642500664	more accurate than
0.1642376015	deal with large scale
0.1642367023	existing ones
0.1642361793	process surrogate
0.1642349256	suggested by
0.1642157396	a 4
0.1642044830	k = 1
0.1641981240	a few percent
0.1641882227	^ c
0.1641767932	on large scale datasets
0.1641698737	an ordered
0.1641346877	classifiers against
0.1641335452	for bayesian neural networks
0.1641304307	immune to
0.1641266825	entropy distribution
0.1641240508	technique for improving
0.1641169715	between normal and
0.1641141293	the majority vote
0.1641090184	a phase transition
0.1640983898	the proposed algorithm converges
0.1640938491	z =
0.1640781409	dimensional model
0.1640779247	potential research
0.1640720417	model built
0.1640679961	structure present in
0.1640563190	transferred to
0.1640514095	binary latent
0.1640457132	using generative adversarial networks
0.1640245277	hypothesis testing for
0.1640108586	in turn
0.1640091560	instantiations of
0.1640006061	pairs of
0.1639907145	o m
0.1639849686	solved using
0.1639567009	to enhance
0.1639361647	study introduces
0.1639051313	outperform prior
0.1638917629	superior empirical
0.1638881851	if and only
0.1638830076	an unsupervised learning algorithm
0.1638697556	two step process
0.1638439295	student models
0.1638353646	sets of
0.1638231733	$ \ psi
0.1638094358	complete characterization of
0.1638045567	logarithmic number of
0.1637978270	in e commerce
0.1637962222	em images
0.1637808166	k n
0.1637646390	a principled manner
0.1637642590	favorably compared to
0.1637358679	parameterized neural
0.1637357141	paid to
0.1637305258	starts from
0.1637177537	the fim
0.1636773820	special focus on
0.1636662898	consistent with
0.1636490205	par with
0.1636470948	families of
0.1635935671	non structured
0.1635908614	few labels
0.1635650313	resulting approach
0.1635524444	convergence rate of
0.1635330918	the ieee
0.1635242651	deep neural network for
0.1635183741	the training data set
0.1635161872	escape from
0.1635099375	$ \ bf
0.1634978979	a large number of
0.1634874352	propose to use
0.1634695314	^ 1 3
0.1634679675	on one hand
0.1634672905	to achieve
0.1634575598	\ frac n
0.1634559169	sample hypothesis
0.1634478055	$ \ chi
0.1634393833	calculated by
0.1634391395	quality training
0.1634384493	the average treatment effect
0.1634376801	alternative to traditional
0.1634361254	a meta learning algorithm
0.1634194730	the exact solution
0.1634183660	modular neural
0.1633951862	adds new
0.1633925318	from streaming data
0.1633838519	data rate
0.1633626564	meta analysis of
0.1633493491	from gene expression
0.1633290012	to extract
0.1633130498	continuous embedding
0.1632906993	specific loss
0.1632633030	sample complexity of
0.1632611262	1 million
0.1632594922	commonly used in practice
0.1632541253	communication between
0.1632496905	expressive model
0.1632277548	representation of data
0.1632178417	so long as
0.1632135658	underlying task
0.1631733577	increasing number of
0.1631650009	amount of
0.1631552097	very successful
0.1631397530	by incorporating
0.1631148287	number of communities
0.1631023979	triggered by
0.1630883626	\ in \ mathbb r
0.1630722764	approach to
0.1630322793	set of covariates
0.1630255785	similarity among
0.1630113973	modelled as
0.1629911191	original loss
0.1629781607	of samples with
0.1629547052	designed to provide
0.1629445921	propose to apply
0.1629441014	= 10
0.1629315938	directly applied to
0.1629206016	to build
0.1628763073	type data
0.1628726330	+ \ varepsilon
0.1628563018	stochastic nature
0.1628392718	of sgd for
0.1628392718	of variables in
0.1628090592	significant drop in
0.1627899814	^ 2 3
0.1627755983	safe exploration in
0.1627735551	train networks
0.1627694215	l ^ 2
0.1627678402	audio adversarial
0.1627574656	the noiseless case
0.1627140035	resolution data
0.1627109874	function defined over
0.1626989675	a topic model
0.1626933093	extend recent
0.1626910202	drop in
0.1626884151	variety of tasks
0.1626846185	algorithm for training
0.1626755298	of adversarial examples in
0.1626625784	without compromising accuracy
0.1626555728	propose to replace
0.1626463447	referred as
0.1626396386	three major
0.1626281258	approach based on
0.1626139584	framework for deep learning
0.1625989346	better calibrated
0.1625898641	combining machine
0.1625725886	carlo method
0.1625718311	carlo algorithm
0.1625697227	failure modes of
0.1625426586	the s &
0.1625357854	an approximately optimal
0.1625328754	framework for incorporating
0.1625296390	smaller computational
0.1625296075	widely applied to
0.1625233833	fixed set
0.1624959663	set of nodes
0.1624957077	three aspects
0.1624893928	selected at
0.1624860960	generalization of deep neural
0.1624860563	linked to
0.1624792353	in algorithmic decision making
0.1624760959	numerical results show
0.1624678633	private machine
0.1624671655	more tractable
0.1624566401	learning framework for
0.1624545999	hallmark of
0.1624317872	\ frac | \ mathcal s
0.1624062021	information extracted from
0.1623990685	powerful method
0.1623896768	sensing images
0.1623805575	small number of parameters
0.1623749024	of training on
0.1623717423	graph embedding models
0.1623676101	high dimensional time
0.1623485393	an important aspect
0.1623180189	re trained
0.1623004668	total training
0.1623002667	an unknown signal
0.1622983175	defined over
0.1622883201	to choose
0.1622799519	a generative model
0.1622744388	scalable framework for
0.1622700118	believed to
0.1622553859	order to analyze
0.1622527626	an inequality
0.1622408477	extensive experimental evaluation on
0.1622389977	framework for generating
0.1621933423	making process
0.1621896351	parametric kernel
0.1621533912	one point
0.1621395548	method to obtain
0.1621266250	source implementation
0.1621238990	\ in \
0.1621169715	in areas such
0.1621007882	two phases
0.1621000508	step method
0.1620958384	parameters required
0.1620827340	the marginal likelihood
0.1620769861	size adaptation
0.1620469743	theoretical error
0.1620340367	model from scratch
0.1620272967	initialized with
0.1620103244	this information to
0.1619922056	lead to faster
0.1619880055	both transductive and inductive
0.1619756721	mean functions
0.1619502672	consistent across
0.1619347724	method for predicting
0.1619239522	the gaussian case
0.1619173349	loss for training
0.1618883720	non standard
0.1618856451	based on generative adversarial networks
0.1618842849	called dynamic
0.1618749024	for inference of
0.1618563021	simple models
0.1618526299	a series of
0.1618491280	algorithms for reinforcement learning
0.1618356183	to optimize
0.1618299092	driven analysis
0.1618082463	layer case
0.1617989191	to encourage
0.1617903205	surprisingly well
0.1617863249	from random matrix theory
0.1617796306	achieve fast
0.1617695196	functions defined
0.1617462053	achieve exact
0.1617347983	significant reduction
0.1617079987	linear partial
0.1617014082	regret bound for
0.1616956120	method to predict
0.1616780691	performance compared to
0.1616768573	single best
0.1616755099	popular data
0.1616685124	specific class
0.1616458394	online anomaly
0.1616336066	predicted by
0.1616127846	descent approach
0.1615961229	attempting to
0.1615872015	thereby making
0.1615776208	requires more
0.1615381977	barrier to
0.1615315709	variety of settings
0.1615001739	non smooth convex
0.1614915202	appropriateness of
0.1614427635	with noisy labels
0.1614376286	logistic process
0.1614114420	of samples needed to
0.1614040041	the pitman yor
0.1613984338	posterior distribution over
0.1613881851	one domain to
0.1613811229	tied to
0.1613734836	the latter
0.1613662600	a single machine
0.1613565607	challenge lies in
0.1613499158	in fact
0.1613435413	| ^
0.1613356183	to infer
0.1613227815	a real world
0.1613081749	easily applied to
0.1613072128	\ subseteq \ mathbb r
0.1612988403	arises in many
0.1612885052	a new learning paradigm
0.1612835690	non quadratic
0.1612749894	early stages of
0.1612520592	achieve faster
0.1612030696	personalized models
0.1611667187	approach on simulated
0.1611632425	main problems
0.1611626632	counterfactual explanations for
0.1611562407	types of problems
0.1611531816	an adaptive version
0.1611489224	algorithms aim
0.1611319103	partition models
0.1611169363	at hand
0.1610666623	sum over
0.1610601583	quality solutions
0.1610455556	variants of
0.1610292598	a finite time analysis
0.1609642262	to automate
0.1609599458	with statistical guarantees
0.1609575180	simple procedure
0.1609536234	react to
0.1609438770	the source domain
0.1609298287	z |
0.1609080272	1 \ pm
0.1608603960	the pre trained model
0.1608374981	improving prediction
0.1608201679	a markov chain
0.1608024548	a stochastic differential equation
0.1607908014	a distance measure
0.1607835902	challenging control
0.1607814617	adversarial manner
0.1607812374	mainly focus on
0.1607603244	from data using
0.1607423517	experiments on simulated
0.1607089643	start by
0.1606898073	comprehensive experiments on
0.1606789173	the state space
0.1606738850	on resource constrained
0.1606692151	over parameterized models
0.1606606259	with unequal
0.1606220224	other agents
0.1606191223	frequency representation
0.1606177056	an attractive
0.1606169838	most existing
0.1605932826	up to
0.1605929141	rigorous analysis of
0.1605892718	for applications with
0.1605784565	_ 1 \
0.1605781174	$ l ^ \ infty
0.1605766757	algorithm to search
0.1605576895	numerical experiments on real
0.1605540879	an additional
0.1605471990	x ^ \ rm
0.1605466760	applied to train
0.1605463621	to identify
0.1605461415	segmentation using
0.1605408392	approaches for learning
0.1605241922	supervised dimensionality
0.1605079801	higher computational
0.1605021814	able to learn
0.1604897951	explicit feature
0.1604638483	$ \ delta 0
0.1604581418	commonly used methods
0.1604580350	a sublinear rate
0.1604397865	learning from
0.1604293803	method for improving
0.1604267553	results indicated
0.1604264578	algorithm for high dimensional
0.1604182305	retrieved by
0.1604034938	methods based on
0.1603991004	an important question
0.1603941320	structure called
0.1603888465	perform very well
0.1603777804	the primal dual
0.1603764642	algorithm based on
0.1603740685	parametric method
0.1603737904	theoretical guarantees on
0.1603652029	recast as
0.1603604270	test whether
0.1603587733	for optimization of
0.1603349489	key aspect of
0.1603274939	vision algorithms
0.1603233383	attacks on deep neural
0.1603096513	higher sample
0.1603069192	family of
0.1602740802	minimum number of
0.1602520939	latter case
0.1602462053	detection benchmarks
0.1602329692	method to compute
0.1602264060	strong assumptions on
0.1602190538	types of attacks
0.1602156373	first order approximation
0.1602107377	criticized for
0.1601790366	$ vae
0.1601677129	a pre defined
0.1601307939	the semi supervised setting
0.1601204228	component regression
0.1601141212	using historical data
0.1601017416	rank approximations
0.1600852406	supported on
0.1600800155	easy task
0.1600684958	traditional multi
0.1600580318	a partially observable
0.1600520884	\ sqrt \ delta
0.1600397136	a hierarchical bayesian
0.1600225696	latent space models
0.1600139191	arranged in
0.1599904425	substantially more
0.1599874291	time lag
0.1599734700	resulting in improved
0.1599668732	improves over
0.1599568023	of convergence in
0.1599540923	compared to prior
0.1599474628	subclass of
0.1599111897	fit data
0.1599008222	least squares problems
0.1598978763	agnostic method
0.1598955262	statistical distribution
0.1598886238	split into two
0.1598759110	recognition using
0.1598740834	constant step
0.1598705858	towards building
0.1598690313	optimizing over
0.1598512368	well controlled
0.1598402118	while ignoring
0.1598246331	per agent
0.1598118012	quadratically with
0.1598081260	the slope
0.1597851166	up to 15
0.1597681575	spectral properties of
0.1597366514	width networks
0.1597352734	and celeba datasets
0.1597207492	d \ epsilon
0.1597141010	too expensive
0.1597019373	improve efficiency
0.1597008832	fails to
0.1596954154	results on synthetic
0.1596868576	based setting
0.1596815944	proposed clustering
0.1596676384	q learning algorithms
0.1596639798	improve classifier
0.1596582764	capture long
0.1596469313	contributed by
0.1596324364	advent of
0.1596314893	order terms
0.1595975089	regions of high
0.1595891987	reduce sample
0.1595853269	by projecting
0.1595820863	each entry
0.1595166583	an adjustable
0.1594982381	robust to label
0.1594588616	a formalization
0.1594489224	agnostic approach
0.1594374920	resulting from
0.1594270303	on and off
0.1593986932	scalable graph
0.1593907168	identification system
0.1593510598	to facilitate
0.1593465275	to compute
0.1593286012	the penn treebank
0.1593281550	but also
0.1593198139	converted to
0.1593183413	lower than
0.1592475610	well to new
0.1592289780	the nuclear norm
0.1592242420	a generic
0.1592125392	require accurate
0.1592015299	a markov chain monte carlo
0.1591708953	trained using
0.1591679349	unlike most
0.1591379742	a possibility
0.1591167387	up to 40
0.1591165740	at time t
0.1591039065	emerge from
0.1590759120	case error
0.1590736062	a high level
0.1590669217	task of finding
0.1590354999	data collected by
0.1590311139	environments with sparse
0.1590204146	network of nodes
0.1590183819	theoretical side
0.1590068072	transferred from
0.1590042774	illustrated via
0.1589825267	completion method
0.1589798908	$ s
0.1589793468	received relatively
0.1589751952	invariant with respect
0.1589689795	hamiltonian system
0.1588994611	the globally optimal solution
0.1588532715	the central idea
0.1588454906	of research for
0.1588442784	trained to learn
0.1588165031	based purely
0.1588138887	a counterexample
0.1588126968	non binary
0.1587981507	tuning approach
0.1587876953	tool for modeling
0.1587872038	in many real world applications
0.1587730942	method to generate
0.1587713012	large p
0.1587572143	a reproducing kernel hilbert
0.1587414323	two gaussians
0.1587411229	advancements in
0.1587404476	convex finite
0.1587391026	from high dimensional data
0.1587291091	model consisting
0.1586998581	an automatic
0.1586989320	huge amount of
0.1586864389	of two or
0.1586832413	laws for
0.1586749130	target objective
0.1586580773	$ \ theta_
0.1586498429	learned from
0.1586427568	based emotion
0.1586383858	theoretical foundation for
0.1586366522	$ \ mathcal p
0.1586345065	novel classes
0.1586314781	$ x_
0.1586283136	an in depth
0.1586101339	gains in performance
0.1585958253	required by
0.1585935239	\ subset
0.1585933992	$ x
0.1585908859	a finite mixture model
0.1585892800	searching over
0.1585321840	order to maximize
0.1585317512	other fields
0.1585227495	learning for multi
0.1584894450	graph fourier
0.1584879325	understood as
0.1584819072	comparison between
0.1584521699	a fully convolutional
0.1584482522	based on local
0.1584481961	the wasserstein distance
0.1584304191	algorithm capable
0.1584251246	supervised topic
0.1584047013	features from multiple
0.1583958726	accurate estimate
0.1583724163	more widely applicable
0.1583019373	yields high
0.1582976069	this paper discusses
0.1582951184	various types of
0.1582883201	to guide
0.1582870894	popular online
0.1582825419	thorough numerical
0.1582666784	interaction between
0.1582565308	supervised text
0.1582012625	methods in high dimensional
0.1581882626	dual method
0.1581820230	set of images
0.1581694203	s ^
0.1581654040	off policy algorithms
0.1581633488	function subject
0.1581575685	per user
0.1581453364	a modified
0.1581277412	a promising approach
0.1581187859	$ stationary point
0.1581146253	\ | \ mathbf
0.1580594616	high dimensional models
0.1580578324	a flexible
0.1580494231	able to capture
0.1580476845	efficient algorithms for
0.1580345860	statistical properties of
0.1580232580	the reproducing kernel hilbert space
0.1580160659	\ mathbb c ^
0.1580065308	train generative
0.1579585355	do so
0.1579568023	of science and
0.1579317439	without suffering
0.1578885431	an oracle
0.1578789739	negative impact on
0.1578773244	number of actions
0.1578726078	| _
0.1578604608	the shelf machine learning
0.1578588744	$ \ mathcal x
0.1578473773	better predictive performance than
0.1578356938	in multi armed bandits
0.1578152309	$ \ texttt
0.1577987417	level control
0.1577725679	approach leads
0.1577560007	negative ones
0.1577540422	the intensity function
0.1577427432	conditioning on
0.1577322982	data drawn
0.1576593827	bayesian optimization for
0.1576277058	arise in
0.1576132626	dual methods
0.1576114851	optimization via
0.1575897082	quantum models
0.1575669093	the australian
0.1575493667	each step
0.1575148017	algorithmic framework for
0.1574987935	less prone
0.1574834555	more likely
0.1574787946	derive convergence
0.1574680450	efficient to compute
0.1574679767	important step towards
0.1574648041	one step further
0.1574642554	quantifying uncertainty in
0.1574587489	in total variation distance
0.1574381824	to determine
0.1574019361	entire model
0.1573916268	$ y = x
0.1573740225	an average
0.1573664122	point algorithms
0.1573565199	the receptive field
0.1573450792	the optimal policy
0.1573351264	one major challenge
0.1573269545	\ widetilde o
0.1573049293	direction methods
0.1572523645	alignment between
0.1572243868	the vanishing gradient problem
0.1571950923	applications in machine
0.1571840997	a global minimizer
0.1571784144	tackled by
0.1571782669	diversity among
0.1571780550	various disciplines
0.1571639503	a rigorous
0.1571378831	significant loss
0.1571282137	a real world case
0.1571231087	between fairness and
0.1571157352	learning mixtures
0.1571061198	method combined
0.1571046865	literature focuses on
0.1570936849	processing method
0.1570934111	trained to generate
0.1570907709	less likely
0.1570841428	such as
0.1570499864	1 p
0.1570420986	distributed across
0.1570333408	learning to control
0.1570262325	behave as
0.1570205235	metric learning for
0.1570159119	a fundamental question
0.1569933921	particularly interesting
0.1569893743	a constructive
0.1569816559	approximation algorithms for
0.1569302079	amounts of
0.1569117517	propose to exploit
0.1568891987	convex procedure
0.1568851734	potentially lead to
0.1568709842	using recurrent neural networks
0.1568639150	a long history
0.1568344993	^ 2 \ varepsilon
0.1567936978	the long term
0.1567820492	a new concept
0.1567818292	of high dimensional data
0.1567788896	an ann
0.1567764168	number of hidden
0.1567183599	set of random variables
0.1567164859	toolbox for
0.1567010177	a deterministic
0.1566968227	a large class of
0.1566913144	becoming more and more
0.1566831802	neural networks trained with
0.1566811489	function directly
0.1566705767	completely different
0.1566704792	field model
0.1566513378	performance close
0.1566273852	an autonomous vehicle
0.1566267055	an element wise
0.1566203173	seen as
0.1565962913	near term
0.1565767996	structured models
0.1565720948	definition of
0.1565556800	^ 2 \ leq
0.1564992932	help explain
0.1564974153	problem in statistics
0.1564949180	value prediction
0.1564521867	methods for detecting
0.1564494536	accurate classifier
0.1563958726	learned metric
0.1563893669	three real world
0.1563794197	first order method
0.1563615901	input space into
0.1563222891	$ \ mathcal s
0.1563187895	+ \ delta
0.1563024996	t \ right
0.1562991603	a topological
0.1562610516	deep learning methods for
0.1562558180	an isolated
0.1562521014	within class
0.1562414840	these methods
0.1562279009	a three step
0.1562271603	= = = = = =
0.1561910270	vast number of
0.1561860563	derivation of
0.1561716848	approaches for solving
0.1561685396	split into
0.1561615919	well designed
0.1561547370	the proposed scheme
0.1561476107	the kullback leibler divergence between
0.1561445937	$ regret bound
0.1561209993	of human decision making
0.1561017232	benchmark data sets show
0.1560732748	application to
0.1560469319	embeddings from
0.1560381020	n \ times n
0.1560248915	rank subspace
0.1560004022	encoded by
0.1559645587	a meta learning
0.1559603663	distributions over
0.1559473277	an interpretable model
0.1559353236	rate compared
0.1559294834	common machine
0.1559248697	sharp analysis of
0.1559185147	a multi layer
0.1559120663	a reject option
0.1558990976	sparse parameter
0.1558911823	computed from
0.1558731039	for graph structured data
0.1558612584	operating on
0.1558600086	algorithm for general
0.1558476586	do not possess
0.1558140715	the triangle inequality
0.1558115551	terms of
0.1558112600	gradient temporal
0.1558039915	whole sequence
0.1557953696	less than 1
0.1557797374	^ 3 \ epsilon
0.1557648010	superhuman performance in
0.1557624985	a random matrix
0.1557618437	a high dimensional feature space
0.1557597539	standard policy
0.1557594332	to protect
0.1557276254	minimal changes to
0.1557262344	a broad range of
0.1557096522	widely applied in
0.1557055614	a consequence
0.1557054349	speech recognition with
0.1556911118	algorithms rely
0.1556700630	different speakers
0.1556378850	on edge devices
0.1556241498	to fine tune
0.1556119781	an optimization problem
0.1556060272	does not belong
0.1556014698	important technique
0.1555891203	sub components
0.1555822660	the majority class
0.1555774868	prediction system
0.1555709885	for likelihood free inference
0.1555640094	for strongly convex functions
0.1555612816	the psf
0.1555608268	derive bounds
0.1555367382	a comparative
0.1555315911	in most cases
0.1555307270	of samples for
0.1555120948	the data distribution
0.1554971720	convolutional sequence
0.1554760901	based virtual
0.1554671951	an exhaustive
0.1554558621	set of tools
0.1554293550	building blocks for
0.1554150905	conference on
0.1553926984	the underlying
0.1553711699	second moments
0.1553627735	challenging since
0.1553600537	$ \ sim
0.1553556639	$ \ exp
0.1553062130	and natural language processing
0.1553029770	based on maximizing
0.1552869458	for learning on
0.1552792311	a 20
0.1552682391	an easy task
0.1552682306	theoretical guarantees for
0.1552481087	of rounds and
0.1552465759	wise training
0.1552461544	via stochastic gradient descent
0.1552380962	platforms like
0.1552348031	unknown class
0.1552187113	formulated in terms
0.1552161215	the art machine learning
0.1552030590	up to 20
0.1551955843	exclusively on
0.1551854027	tested on synthetic
0.1551806914	differently from
0.1551791717	biased training
0.1551779477	penalized least
0.1551537741	highly vulnerable to
0.1551231087	in domains such
0.1551231087	between source and
0.1550946414	very good
0.1550888973	near linear
0.1550852154	$ \ alpha = 1
0.1550753153	more effective
0.1550568461	communication among
0.1550390679	trained to optimize
0.1549993247	$ 0
0.1549651829	the jensen shannon
0.1549211637	the problem of learning
0.1549162073	set of labels
0.1548649297	model trained on
0.1548569997	obtain robust
0.1548514470	or equivalently
0.1548338992	application of
0.1547865684	sub gaussian distribution
0.1547411111	each hidden layer
0.1547400500	true regression
0.1546905766	path towards
0.1546759933	for multi armed bandits
0.1546738309	a provable
0.1546450954	density models
0.1546323559	obtained through
0.1546070884	sharp analysis
0.1545696460	method based on
0.1545682646	using generative adversarial
0.1545657352	bayes model
0.1545545974	five real world
0.1545521920	\ | ^
0.1545463353	these limitations
0.1545321876	poisoning attacks on
0.1545261567	horizon problems
0.1545248781	the true
0.1545092659	to engage
0.1544708156	high dimensional non
0.1544531651	one side
0.1544508373	a predictive model
0.1544261266	much attention
0.1544067035	parallel version of
0.1544053911	a fixed length
0.1544052694	working with
0.1543978619	without ever
0.1543792181	a machine learning based
0.1543778564	data represented
0.1543698056	between adjacent
0.1543657414	point methods
0.1543451158	also provide
0.1543348133	two use cases
0.1543312615	the cm
0.1542977899	framework for understanding
0.1542944981	tested against
0.1542513565	characteristics of
0.1542421708	the problem of estimating
0.1542243589	superior to
0.1542198060	before applying
0.1542196893	special type of
0.1542070553	of adaptive gradient methods
0.1542059282	\ kappa d
0.1542006525	characterisation of
0.1541926552	$ \ vec
0.1541886465	each vertex
0.1541856123	enjoyed by
0.1541622360	non asymptotic analysis
0.1541328800	theoretical understanding of
0.1541109899	connectivity networks
0.1540936969	of convergence to
0.1540936969	of data available
0.1540936969	and activations of
0.1540936969	between performance and
0.1540758566	framework for estimating
0.1540622397	demonstrated through
0.1540590809	experiments with real
0.1540445993	box model
0.1540296919	very slow
0.1540116909	sources of data
0.1540027165	a primal
0.1540017369	model based on
0.1540005542	superiority of
0.1539993394	invariant under
0.1539900512	fair models
0.1539878163	r ^ 3
0.1539875789	without modifying
0.1539833738	larger models
0.1539827564	able to predict
0.1539781125	variational autoencoder for
0.1539209268	methods based on deep
0.1538948016	\ times 10 ^
0.1538867174	each item
0.1538808115	approach outperforms state of
0.1538759211	integral part of
0.1538471282	performance on
0.1538324347	brief introduction to
0.1538296652	proposed to reduce
0.1538217090	with applications to
0.1538027498	directly related to
0.1538016370	on mnist
0.1537989157	each other
0.1537846711	decentralized deep
0.1537813533	hundreds of thousands of
0.1537708168	the features used
0.1537673846	make predictions
0.1537621599	difficult because
0.1537562704	the entire
0.1537559919	the main idea
0.1537389520	an attention
0.1537333890	techniques focus
0.1537234188	efficiency compared
0.1537015627	rooted in
0.1536593974	for solving large scale
0.1536097565	convolutional neural network for
0.1536043396	a local minimum
0.1535889271	while achieving
0.1535796465	types of
0.1535787043	process framework
0.1535706546	benefits over
0.1535608268	independent test
0.1535579625	hard to
0.1535122277	$ \ delta_
0.1534757244	fooled by
0.1534434806	degrees of
0.1534423403	patients based on
0.1534366722	minimized by
0.1534364087	the class imbalance problem
0.1534334585	on standard benchmark datasets
0.1534281414	experiments with simulated
0.1534249068	by minimizing
0.1534211270	from expert demonstrations
0.1534089411	exponential increase in
0.1534079286	diagnosis using
0.1534056950	a practical
0.1533750337	correlates with
0.1533744573	resulted from
0.1533689119	two orders of magnitude
0.1533487848	raised by
0.1533227277	$ fold
0.1532981507	processing approach
0.1532977870	a high dimensional vector
0.1532883201	to accelerate
0.1532870944	mainly focus
0.1532867570	at different stages
0.1532737347	results on mnist
0.1532444009	algorithm for
0.1532437840	matrix completion via
0.1532225289	data driven methods for
0.1532122173	proposed in recent
0.1532063322	approach for analyzing
0.1532013188	by presenting
0.1531611731	learning relies
0.1531577232	\ log k
0.1531560751	bias introduced by
0.1531506965	decreased by
0.1531373249	off policy data
0.1531346530	number of dimensions
0.1531310204	weak convergence of
0.1531067344	effect on
0.1531023559	methods in machine learning
0.1530965824	of neural networks by
0.1530936969	and practice of
0.1530818590	significantly more
0.1530528071	3 dimensional
0.1530425645	variable length time
0.1530393598	significantly more accurate than
0.1530359628	most existing methods
0.1530331740	model aims
0.1530274365	reinforcement learning using
0.1530232911	problem of online
0.1529901677	framework capable
0.1529723405	specifically designed to
0.1529651840	widespread adoption of
0.1529572097	$ \ mathcal f
0.1529567009	to create
0.1529487059	to generate high quality
0.1529281073	used to generate
0.1529212164	simple convex
0.1529197826	method on synthetic
0.1529106954	applications in science
0.1528990522	the mclnn
0.1528566124	$ \ x_n \
0.1528491834	different domains
0.1528265692	avenues for
0.1527850984	no polynomial time algorithm
0.1527835522	shared between
0.1527569397	mathematical theory of
0.1527370188	based on mutual information
0.1527323987	an algorithm
0.1527225073	learning in general
0.1527205335	approach to combine
0.1527130287	targeted at
0.1526633602	fundamental limits of
0.1526598019	more effective than
0.1526138436	number of inducing
0.1525956919	experiments to verify
0.1525792907	level of performance
0.1525705241	an autoregressive
0.1525609305	good generalization
0.1525572265	the proposed method shows
0.1525562372	the graph laplacian
0.1525548441	a geometric
0.1525478327	method for reducing
0.1525268525	research into
0.1524800399	tremendous amount of
0.1524488725	performance on par
0.1524443089	the multi armed bandit
0.1524252093	choice of
0.1524156711	$ \ hat \ beta
0.1524147551	many disciplines
0.1524057627	dnns trained
0.1524042054	from multiple sources
0.1523990976	process theory
0.1523944125	set of weights
0.1523729404	network with attention
0.1523697727	the entire dataset
0.1523405143	converge at
0.1523286848	causal inference with
0.1523250411	becomes necessary
0.1523015137	neural networks with
0.1522968690	popular generative
0.1522544386	an alternating direction method
0.1522369668	model to generate
0.1522001663	more stable
0.1521928523	propose two approaches
0.1521879250	members of
0.1521856123	exacerbated by
0.1521603865	ranking models
0.1521569778	concentrated on
0.1521410567	a large
0.1521308383	important to identify
0.1521105492	gaussian width of
0.1520955298	of uncertainty for
0.1520922566	approach for predicting
0.1520796755	so as to minimize
0.1520468067	numbers of parameters
0.1520408028	a mathematical
0.1520148636	numerical example
0.1520021036	\ ell ^ 2
0.1519929648	notoriously difficult to
0.1519782047	$ r \ ll
0.1519724004	priori known
0.1519503581	framework to study
0.1519448060	still largely
0.1519294049	the art deep learning methods
0.1519004413	up to constants
0.1519000125	the first stage
0.1518963988	power against
0.1518499073	using as few
0.1518337370	deep learning model for
0.1518166497	very broad
0.1517891032	while protecting
0.1517821176	restricted to
0.1517708168	of positive and
0.1517679127	assumption about
0.1517550525	arises naturally in
0.1517421133	various application domains
0.1517364448	experiments on four real
0.1517334390	known about
0.1517310831	a unified manner
0.1517287505	these questions
0.1516883201	to tune
0.1516877896	respond to
0.1516747450	off policy deep
0.1516741598	datasets and real world
0.1516403634	to counteract
0.1516383006	learning in practice
0.1516241449	\ widetilde \ theta
0.1516239474	highly depends on
0.1516202576	harder than
0.1516117007	= \ mathcal
0.1515772548	paper focuses on
0.1515702419	$ n \ times n
0.1515540017	transfer knowledge from
0.1515497081	framework for computing
0.1515411420	achieve zero training
0.1515322620	each segment
0.1515124488	number of pixels
0.1515095859	algorithm to optimize
0.1515058978	a 6
0.1514476002	differ between
0.1514459273	a data driven framework
0.1514193102	recovered from
0.1514153044	set of labeled
0.1513823915	up to 100
0.1513801960	problem of jointly
0.1513762462	driven applications
0.1513622356	spectral clustering using
0.1513612593	to handle
0.1513595916	these shortcomings
0.1513565727	number of hyper parameters
0.1513558074	e |
0.1513520914	broad family of
0.1513488382	agree with
0.1513458811	compensates for
0.1513425298	different neural network architectures
0.1513304961	frequently encountered in
0.1513124500	problem of maximizing
0.1512807503	proposed for solving
0.1512695126	annotated training
0.1512414996	problem in machine
0.1512276121	observed in real
0.1512093393	reconstruction using
0.1511999279	conclude with
0.1511998025	based on genetic
0.1511764651	two fundamental
0.1510984132	many applications of machine learning
0.1510626171	very promising
0.1510561571	from low to high
0.1510434644	a simple technique
0.1510275232	key aspects of
0.1510196383	side result
0.1510118963	collected at
0.1510099622	times less
0.1510079035	convex combination of
0.1510002494	efficient implementations of
0.1509811857	numbers of
0.1509673822	$ 0 p 1
0.1509572097	$ \ mathcal m
0.1509564740	justification for
0.1509497081	method for identifying
0.1509439527	epsilon =
0.1509407709	communities in networks
0.1509220239	a fixed point
0.1509207467	the adam optimizer
0.1509124940	index models
0.1509124252	learning to predict
0.1509008682	the search space
0.1508995577	novel environments
0.1508810356	form of
0.1508426191	a generalised
0.1508140040	results on real world datasets
0.1507980386	very difficult
0.1507883201	to reach
0.1507708168	of noise to
0.1507562625	a computational model
0.1507500664	available at
0.1506945108	an appropriate
0.1506607529	computed using
0.1506582115	best fitting
0.1506174819	typically suffer from
0.1505988510	approach to estimate
0.1505902596	compared to other
0.1505778616	this article introduces
0.1505735853	new direction
0.1505641618	theoretical analysis of
0.1505593297	preliminary results show
0.1505467854	backward algorithm
0.1505441679	efficient estimation of
0.1505247010	opens new
0.1505074126	selection for high dimensional
0.1504922433	framework to solve
0.1504831377	this work proposes
0.1504752829	experiments on large
0.1504389099	number of weights
0.1504377896	characterizations of
0.1504348031	obtain convergence
0.1504347917	the schatten
0.1504299232	algorithms based on
0.1504147567	order to detect
0.1503892653	an image
0.1503876266	plus noise
0.1503776760	an important and challenging
0.1503724725	the last decades
0.1503664827	priors over
0.1503620799	y = x
0.1503534287	based news
0.1503423238	to distortion ratio
0.1503302630	non causal
0.1503298010	model capable
0.1503239923	approached by
0.1503119153	the latent space
0.1502923192	resurgence of
0.1502686211	for high dimensional regression
0.1502599492	the same time
0.1502554337	\ text
0.1502534665	experiments on three real
0.1502433467	specific feature
0.1502349400	able to achieve
0.1502291121	nonparametric estimation of
0.1502182098	detecting changes in
0.1501950741	periods of time
0.1501812587	member of
0.1501758224	a limited number
0.1501369587	the stochastic multi armed bandit
0.1501359520	across multiple domains
0.1501243359	the entire population
0.1501065421	the restricted isometry
0.1500532918	well approximated
0.1500489765	$ \ lambda_
0.1500351991	a promising paradigm
0.1500240568	one shot neural
0.1500098265	k 2
0.1499709868	i = 1
0.1499666169	two layers neural
0.1499566505	learning mixtures of
0.1499549875	a central role
0.1499548290	synthesis using
0.1499487855	able to handle
0.1499474159	s \ log
0.1499435507	takes into
0.1499118530	competitive against
0.1498885093	easier than
0.1498708047	condition on
0.1498659631	to do so
0.1498060032	extracted by
0.1498022254	average over
0.1497995091	results on
0.1497963574	an implicit
0.1497899258	searching for
0.1497800849	d \ cdot
0.1497563741	order to gain
0.1497452174	transfer learning for
0.1497305258	on graph structured data
0.1497282609	attempt at
0.1497280184	a model based
0.1497136915	in spite of
0.1497117244	q value
0.1497047629	a novel deep neural network
0.1496670472	comparing against
0.1496523207	\ sqrt m
0.1496419527	exploited by
0.1496305920	two layer neural
0.1496015407	non convex learning
0.1495992729	distributional assumptions on
0.1495894573	under fitting
0.1495708376	the learning rate
0.1495681661	formulation allows
0.1495672905	to capture
0.1495634094	the art baseline
0.1495474142	by casting
0.1495462446	evaluated at
0.1495266994	achieved through
0.1495210881	neural networks for learning
0.1494710700	each individual
0.1494643617	robustness of deep
0.1494613921	the fused lasso
0.1494522533	l \
0.1494513664	a binary classification task
0.1494465081	order to achieve
0.1494323915	a lightweight
0.1494260628	the key challenge
0.1494260194	very limited
0.1493960068	paired with
0.1493843468	distribution over
0.1493843418	number of unique
0.1493798641	approach does not require
0.1493598372	a bayesian nonparametric
0.1493309766	the original data
0.1493169818	$ ball
0.1492795728	the proposed approach achieves
0.1492644583	a large body of research
0.1492632360	$ \ textbf
0.1492563929	two class
0.1492361740	this note
0.1492352118	complex control
0.1492331265	probability distribution over
0.1492285714	problem of computing
0.1492210404	opportunities for
0.1492143323	a bilevel
0.1492139602	robust to
0.1491753200	still not well understood
0.1491368203	shared by
0.1491309275	the proposed methodology
0.1491295228	surge of interest
0.1490921574	massive amount of
0.1490895584	$ 1
0.1490871882	functions for learning
0.1490692570	identified as
0.1490573456	the main
0.1490384820	a message passing
0.1490294270	sub optimal solutions
0.1490190916	an autoencoder
0.1490161712	one sample
0.1489980900	loss of performance
0.1489885431	by comparing
0.1489798908	$ r
0.1489658307	set of rules
0.1489643739	general enough to
0.1489612169	posterior mean
0.1489310055	resides in
0.1489244813	becomes critical
0.1489044935	\ leq o
0.1488886422	problem by proposing
0.1488851810	critic methods
0.1488453556	\ ch
0.1488301410	validated through
0.1488266158	towards addressing
0.1487580699	p q
0.1487464916	especially true
0.1487427282	fine tuned for
0.1487382493	approach for detecting
0.1487298642	selection via
0.1487219968	vector representation of
0.1487120474	$ ^ 2
0.1487083670	correlate with
0.1486675353	ease of
0.1486459017	empirical evaluation on
0.1486354966	while requiring
0.1485868795	1 e
0.1485822644	the observed data
0.1485435411	non linear interactions
0.1485218623	thereby improving
0.1484990425	bounded by
0.1484870489	a testbed
0.1484824706	a distributed algorithm
0.1484731494	many samples
0.1484691381	a recently proposed
0.1484302549	classes of algorithms
0.1484215960	data arise
0.1483954328	either too
0.1483811507	model to capture
0.1483650191	\ leq n
0.1483363776	if then
0.1483253718	$ 1 \ leq
0.1482865187	all actions
0.1482695624	asymptotic mean
0.1482303278	complexity of
0.1482279984	used to inform
0.1482253176	method for analyzing
0.1482164629	the bregman divergence
0.1482098943	performance of deep neural networks
0.1482073114	a unified approach
0.1481968227	a wide class of
0.1481946947	a behavioral
0.1481803470	the weight function
0.1481400775	surrogate model for
0.1481385401	performed better
0.1481372886	shift algorithm
0.1481360144	p n
0.1481191958	requires only
0.1481148444	processed by
0.1480910464	major role in
0.1480897953	an ill posed
0.1480759783	binary random
0.1480681774	much broader
0.1480605514	a machine learning problem
0.1480573770	an unknown environment
0.1480343152	newton algorithm
0.1480282418	performance over existing
0.1480263054	emerge as
0.1480171624	compared with other
0.1480161856	one or more
0.1479885431	by utilizing
0.1479858375	first order stochastic
0.1479757970	a lot of
0.1479745999	\ to \ mathbb r ^
0.1479704962	the art deep
0.1479685120	dynamic changes
0.1479597287	a meta learner
0.1479155974	scale well to large
0.1479065255	try to
0.1478934615	stochastic version of
0.1478902418	several orders of magnitude
0.1478805908	data lie
0.1478690862	implemented using
0.1478328575	applications like
0.1478293347	based on random forests
0.1478112878	using graph neural networks
0.1478103323	by conducting
0.1478020141	based on gaussian processes
0.1477965925	illustrated with
0.1477885431	an initial
0.1477669155	availability of large
0.1477378871	advantages of
0.1477238883	$ k \ ge
0.1477002283	experiments on three benchmark
0.1476454067	a joint learning
0.1476065313	with missing data
0.1476033285	including but not limited to
0.1475910798	the primal variable
0.1475829468	minimal set of
0.1475809498	generalization bound for
0.1475569766	to discover
0.1475564089	a by product
0.1475422606	empirically show
0.1475265281	= |
0.1475248844	separated by
0.1475159277	starts with
0.1474940374	extensively studied in
0.1474643645	by concatenating
0.1474643645	by recasting
0.1474617504	an online learning
0.1474365122	in developing countries
0.1474090828	well represented
0.1473522808	\ rm l
0.1473494967	an active learning
0.1473374484	evaluated using
0.1473344252	the last few years
0.1473074847	publicly available at
0.1473038480	$ \ theta ^ *
0.1472860543	best subset
0.1472708238	yields state of
0.1472619998	a function space
0.1472559252	systematic analysis of
0.1472549083	exists between
0.1472524686	based approach to
0.1472398677	a clustering based
0.1472106857	the art performance on
0.1471977056	an emerging
0.1471971345	drastically different
0.1471892460	outcome of interest
0.1471835834	directly applicable to
0.1471764858	several desirable properties
0.1471671784	to decide
0.1471530328	compactness of
0.1471519680	especially deep neural networks
0.1471490715	a global minimum
0.1471103783	principled framework for
0.1471055268	agent's ability to
0.1470901231	time series models
0.1470706847	a clear advantage
0.1470590064	the rate distortion
0.1470307402	to enable
0.1470067422	learning to infer
0.1469983154	learn from data
0.1469810914	a multi head
0.1469570137	a set of
0.1469504453	wide variety of tasks
0.1469445010	smaller models
0.1469236120	applications in areas
0.1469162878	interacting with
0.1468532875	drawn much
0.1468523618	datasets and real
0.1468490678	proceeds by
0.1468325880	exploratory analysis of
0.1468144711	the era of big
0.1467703528	machine learning algorithms for
0.1467657209	perturbation models
0.1467091661	the final
0.1467032053	specially designed for
0.1467009819	methods attempt
0.1466978154	a diffusion process
0.1466922778	for large scale
0.1466905591	an additive
0.1466872323	a naive bayes
0.1466694704	a highly efficient
0.1466298327	a large pool
0.1466096951	$ round
0.1466083451	$ greedy
0.1465562874	a low rank structure
0.1465280181	inverse problems using
0.1465177406	$ z
0.1465085739	continue to
0.1465060039	methods often fail
0.1465055021	propose to model
0.1464961162	learning for regression
0.1464097391	2d image
0.1464086364	analysis of deep learning
0.1463731788	both academia and industry
0.1463414840	to estimate
0.1463402812	active learning algorithm for
0.1463376850	non polynomial
0.1463270252	across multiple datasets
0.1463076577	relative to existing
0.1463021748	\ times \ mathbb r
0.1462842017	a short
0.1462664465	algorithm for fitting
0.1462647469	into two categories
0.1462534905	time points
0.1462313022	expressed by
0.1461784383	all possible
0.1461519031	robust to noisy
0.1461506834	proliferation of
0.1461477265	this paper establishes
0.1461403856	to realize
0.1461135615	$ regularized least squares
0.1461104591	a bayesian non parametric
0.1460881500	written as
0.1460745556	this problem arises
0.1460736555	a large set of
0.1460717779	fall short in
0.1460672905	to perform
0.1460475142	novel methodology
0.1460259402	in line with
0.1460064760	the problem of
0.1459888062	\ sim p
0.1459792005	multi armed bandit with
0.1459731763	to improve performance
0.1459616162	a bias variance
0.1459286397	depending on whether
0.1458745960	detected by
0.1458451049	not yet
0.1458319072	analogue of
0.1458297262	approach to solve
0.1457977549	non asymptotic upper
0.1457843462	$ \ ell ^ 2
0.1457639794	proximity between
0.1457310053	the glue benchmark
0.1457292819	to detect outliers
0.1457196946	early prediction of
0.1457136688	\ sqrt n \ epsilon
0.1457028631	gaussian models
0.1456583019	conclude by
0.1456325581	batch size for
0.1456191988	a great variety of
0.1455854792	those obtained
0.1455754307	\ textbf m
0.1455727720	result gives
0.1455606531	full gradients
0.1455526803	guaranteed to
0.1455509892	to combat
0.1455480682	an extension
0.1455374433	valid under
0.1455143679	exact computation of
0.1454873120	an order of magnitude faster than
0.1454587797	generalized mean
0.1454549867	to reconstruct
0.1454450141	propose two methods
0.1454445585	on several real world
0.1454335352	penetration of
0.1453582043	a large data set
0.1453339374	the basic idea
0.1453256299	using observational data
0.1452979781	typically contain
0.1452954454	x ^ *
0.1452724938	non rigorous
0.1452675263	learn to solve
0.1452512688	an efficient learning algorithm
0.1452437534	\ cal o
0.1452434436	a fixed
0.1452405271	stability properties of
0.1452211057	proceed to
0.1451989517	while leaving
0.1451890307	the art method
0.1451835393	for autonomous vehicles
0.1451795960	more than 20
0.1451733535	less sensitive to
0.1451642874	a much wider
0.1451614883	along with
0.1451543862	a high performance
0.1451408642	a tight
0.1451379601	early detection of
0.1451315567	consistent estimation of
0.1450848108	order to enable
0.1450726327	the viterbi
0.1450667310	reformulation of
0.1450552872	requests for
0.1450432926	implemented by
0.1450304503	realizations of
0.1450295177	invariant to
0.1450150506	aims to find
0.1449905736	learning predictive models
0.1449880616	recovered by
0.1449734152	competitive with existing
0.1449528009	proposed to model
0.1449477384	a cascaded
0.1449298435	reside in
0.1449281073	used to predict
0.1449193388	knowledge transfer from
0.1449190202	comparative analysis of
0.1449056316	the grassmann manifold
0.1448791983	model outperforms state of
0.1448700739	baseline models
0.1448558640	the gaussian process
0.1448514117	this issue by proposing
0.1448345037	less than 10
0.1448336203	a nonparametric method
0.1448245954	$ \ tt
0.1448129956	the global optimum
0.1448105870	exponential models
0.1447851640	algorithms for training
0.1447709830	attend to
0.1447618034	empirical risk minimization with
0.1447463861	the gumbel
0.1447312905	for high dimensional problems
0.1447264057	also discussed
0.1447147311	approaches rely on
0.1447093017	sets of images
0.1446952701	this survey
0.1446934955	for missing data imputation
0.1446656939	graphs from data
0.1446585728	the koopman operator
0.1446575839	approach to address
0.1446560641	the maximum likelihood estimate
0.1446372453	learning for image
0.1446164026	global convergence of
0.1445910345	an unsupervised approach
0.1445786959	calls for
0.1445753777	by utilising
0.1445746275	initialized at
0.1445621058	performance in predicting
0.1445595742	environment changes
0.1445492841	fundamental properties of
0.1445348578	an interpretation
0.1445309046	to better understand
0.1445039742	any classifier
0.1445002128	an asymptotic
0.1444923545	the forward pass
0.1444819738	the state action space
0.1444781859	increasing interest
0.1444686283	data stored
0.1444639117	with replacement
0.1444390204	graphs from
0.1444373608	do not hold
0.1444355311	a maximum entropy
0.1444320034	obtaining state of
0.1444134945	measure of similarity between
0.1443231922	want to
0.1443091523	an efficient alternating
0.1443075617	hierarchical bayesian models
0.1442872546	terms of robustness
0.1442870362	novel molecules
0.1442741754	entire set of
0.1442711170	majority of
0.1442665564	copies of
0.1442645487	through extensive numerical
0.1442515174	the qoi
0.1442482985	structure from data
0.1442449618	technique for training
0.1442397527	operate under
0.1442368681	building on
0.1442262737	evaluation of
0.1442233535	different kinds of
0.1442125761	the fully connected layers
0.1442082988	information from
0.1442008798	a major advantage
0.1441873390	then fed
0.1441801978	leading to significant
0.1441577994	more than 100
0.1441415350	this challenge
0.1441343497	non parametric kernel
0.1441289234	many machine learning applications
0.1441263896	diagnosed with
0.1441135758	the standard cross entropy
0.1441066211	representations of complex
0.1440830133	identification of nonlinear
0.1440798425	2 million
0.1440478741	performed using
0.1440333502	a grand challenge
0.1440123688	about 10
0.1440086391	a gaussian process prior
0.1440028129	per weight
0.1439981935	d \ log
0.1439946924	$ regret
0.1439944009	method for
0.1439742402	every point
0.1439353909	small portion of
0.1439296039	stochastic gradient descent for
0.1439285472	_ n \
0.1439008662	several authors
0.1438974919	a long short term
0.1438759784	existing work
0.1438536154	framework based on
0.1438511894	the kernel matrix
0.1438446812	mixture of gaussian
0.1438366550	an open research
0.1438194807	an analytic
0.1438124840	completely new
0.1437998648	distinct from
0.1437715115	an explanation
0.1437588380	strategy based on
0.1437537651	number of sources
0.1437291144	under sampled
0.1437262344	a small subset of
0.1436792493	learning with differential
0.1436658456	the central server
0.1436590337	presence of noisy
0.1436426143	susceptibility to
0.1436346077	set of constraints
0.1436271158	an em
0.1436221631	of nonlinear dynamical systems
0.1436178026	take advantage
0.1435912932	trained models
0.1435830780	each entity
0.1435687895	x \ beta
0.1435642309	fail because
0.1435640628	extract information from
0.1435520800	the art result
0.1435513618	classified as
0.1435463774	typically done
0.1435315911	in other words
0.1435310241	a distributed manner
0.1434876974	foundations of
0.1434784529	to adjust
0.1434771675	estimated from data
0.1434587672	up to 25
0.1434575158	a critical
0.1434395628	y_i \
0.1434391819	to extract meaningful
0.1434330392	\ sum_ k
0.1434039801	an adversarial
0.1433929721	gathered by
0.1433882910	inability to
0.1433483793	efficiently solved by
0.1433412515	2019 task
0.1433218326	wish to
0.1433072531	non linear transformation
0.1433037561	proven very
0.1432998003	generative model for
0.1432918423	concepts from
0.1432814410	resilient to
0.1432783455	substantial improvement in
0.1432756780	experiments on multiple
0.1432714126	the input
0.1432405671	does not know
0.1432332048	function f
0.1432099102	separated into
0.1431929218	efficient than existing
0.1431840270	5 times
0.1431807522	$ \ boldsymbol \ theta
0.1431736226	to produce
0.1431659818	a bi directional
0.1431593836	a wide range of applications
0.1431278039	tasks like
0.1431154790	conducted on four
0.1431096395	comparable performance to
0.1431044408	problem of choosing
0.1431026424	analogues of
0.1430818604	algorithm for distributed
0.1430798031	on real life data
0.1430777968	ucr time
0.1430747743	generalizations of
0.1430466941	analysis of deep neural networks
0.1430437140	^ \ text
0.1430435262	the discount factor
0.1430252984	a large fraction
0.1430093830	communicate with
0.1429867341	valuable tool for
0.1429632412	an evolutionary
0.1429569769	image classification using
0.1429403071	a high dimensional
0.1428845985	3d convolutional
0.1428805711	several decades
0.1428731792	assumptions regarding
0.1428634571	log p
0.1428575667	over time
0.1427912449	aligned with
0.1427337798	remaining data
0.1427287272	more versatile
0.1427093702	tasks such as object
0.1426925328	most prominent
0.1426923789	consistency properties of
0.1426746547	in hindsight
0.1426677098	three layer
0.1426626584	an indication
0.1426559694	a closer look
0.1426480872	images from
0.1426346537	identification of
0.1426253533	algorithms for
0.1426093201	sub policies
0.1426046209	the number of training samples
0.1425713223	in particular
0.1425539070	prism of
0.1425504191	the total variation distance
0.1425317975	$ u
0.1425300966	uniform distribution on
0.1425059028	ranges from
0.1424956800	accuracy compared to
0.1424808975	comparisons against
0.1424787389	these results
0.1424712879	and real data examples
0.1424615817	gp models
0.1424565446	comprehensive review of
0.1424465450	in order to improve
0.1424465433	ever more
0.1424429680	learning with adaptive
0.1424429329	without assuming
0.1424428492	the art classifiers
0.1424375056	systematic way
0.1424316486	variety of datasets
0.1424130780	any desired
0.1424096138	an extensive empirical
0.1423942663	focus on learning
0.1423838120	by deriving
0.1423729426	including but not limited
0.1423489891	tailored for
0.1423214051	for low rank matrix completion
0.1423190996	an order of magnitude faster
0.1423137739	a simulation study
0.1423126967	obtained using
0.1423066353	anomaly detection with
0.1423065340	analysis relies on
0.1422873747	differentiable with respect
0.1422760053	lines of work
0.1422590346	notoriously hard to
0.1422555941	perturbed by
0.1422314654	a byproduct
0.1421897418	more than 50
0.1421891884	approach for generating
0.1421846175	for high dimensional linear regression
0.1421633335	to drop
0.1421576587	theoretical characterization of
0.1421531389	different parties
0.1421335969	small subsets of
0.1421299035	mixture of
0.1421141503	critical points of
0.1421095295	the true distribution
0.1420826223	a log factor
0.1420622792	in contrast
0.1420569766	to quantify
0.1420483004	structural models
0.1420419170	examples to illustrate
0.1420289707	meta models
0.1420261498	to navigate
0.1420077605	the proposed method yields
0.1420037325	a major obstacle
0.1420004534	of classes in
0.1419971038	widely adopted in
0.1419820628	the l1 norm
0.1419644196	a formal definition
0.1419381295	$ 10 ^ 6
0.1419363699	an exploratory
0.1419339366	\ mathbf m
0.1419281073	used to estimate
0.1419263882	predict whether
0.1419190031	each instance
0.1419119397	approach to train
0.1419097474	competitive results on
0.1418850279	the problem of finding
0.1418849672	the objective function
0.1418848389	$ armed
0.1418812676	predictions made by
0.1418679003	\ tau =
0.1418592857	report state of
0.1418527550	the output layer
0.1418206252	perform comparably to
0.1418164606	\ 0,1 \
0.1418107450	directly from
0.1418055160	require access to
0.1417961635	an alternating
0.1417871150	number of labels
0.1417673000	number of distinct
0.1417591408	performed on
0.1417365570	results shed light on
0.1417179375	deeper models
0.1416547257	query time
0.1416417539	originally designed to
0.1416317386	+ \ alpha
0.1416204858	discuss several
0.1416146060	a probabilistic
0.1416138476	large quantities of
0.1416104572	a causal ordering
0.1415958126	improvement in
0.1415898954	$ \ zeta
0.1415740506	network to generate
0.1415406199	gains compared to
0.1414997006	success of deep neural
0.1414978270	different kinds
0.1414756578	high sensitivity to
0.1414726172	getting stuck in
0.1414643981	$ convergence rate
0.1414558128	demonstrated state of
0.1414536146	existing methods in terms
0.1414519623	the proposed estimator
0.1414515980	the use of
0.1414198734	a systematic review
0.1414195384	substantial improvements in
0.1413986123	without changing
0.1413955719	minimax rates for
0.1413756503	the matrix completion problem
0.1413676157	each category
0.1413375525	data driven way
0.1413129959	any pre trained
0.1413039307	a promising direction
0.1412587175	a well studied problem
0.1412374287	outperforms other state of
0.1412129836	applied to improve
0.1411772223	implementation of
0.1411686959	converging to
0.1411544090	very mild
0.1411480486	based end to end
0.1411471352	obtain state of
0.1411226941	approach for computing
0.1411206217	performance relative to
0.1411156503	non positive
0.1410991911	with bandit feedback
0.1410969686	trained via
0.1410919328	case of sparse
0.1410806145	convergence guarantees for
0.1410608299	with strong theoretical guarantees
0.1410543790	a small perturbation
0.1410502657	attack against
0.1410273572	new users
0.1410052025	collected from multiple
0.1410017804	and fashion mnist datasets
0.1410004534	of examples in
0.1410004534	into training and
0.1409726958	constructed using
0.1409557504	uncertainty quantification for
0.1409465967	scale mixture of
0.1409460402	phase transitions in
0.1409191635	quantitative analysis of
0.1409174829	on board
0.1409130252	very poor
0.1409087828	an equivalence between
0.1409021792	make recommendations
0.1408818645	a multi output
0.1408802500	to failure
0.1408419985	more favorable
0.1408419934	a b test
0.1408256168	achieves better
0.1408073975	termed as
0.1407899804	acquired by
0.1407752316	imagenet models
0.1407653386	the original data set
0.1407393059	$ \ mathcal h
0.1407378940	a corollary
0.1407199557	come at
0.1407008860	network to classify
0.1406981497	community detection in
0.1406478748	fractions of
0.1406453294	one year
0.1405604256	a spectral method
0.1405468138	breakthroughs in
0.1405451675	the tgnn
0.1405444162	both synthetic and real data sets
0.1405325087	extensive experiments on three
0.1405061964	top layer
0.1404466886	bayesian approach to
0.1404414160	\ geq 3
0.1404389779	process models
0.1404231492	on synthetic data
0.1404209889	| | ^
0.1403911085	methods for high dimensional
0.1403871234	research interest
0.1403861400	$ means algorithm
0.1403659580	good performance
0.1403569051	very close
0.1403341949	robustness properties of
0.1403312910	$ \
0.1403269468	more compact
0.1402993897	realization of
0.1402986683	concrete example
0.1402979425	method to identify
0.1402974803	direct estimation of
0.1402956018	expressions for
0.1402788957	much better than
0.1402740799	networks for semi supervised
0.1402544520	to handle missing data
0.1402502542	reasoning over
0.1402185863	an input sequence
0.1402111097	the low rank matrix
0.1402061213	25 \
0.1401999046	representational capacity of
0.1401928218	an rnn
0.1401690221	\ tilde \ mathcal o
0.1401379561	the training set size
0.1401155840	the recently proposed
0.1401061353	the expectation maximization algorithm
0.1401018689	a high dimensional setting
0.1400927414	averaged over
0.1400802335	a supervised learning problem
0.1400704941	an important factor
0.1400609882	the optimal solution
0.1400506142	a gan based
0.1400477658	the decision boundary
0.1400072258	essential for
0.1399893388	structural properties of
0.1399882005	this area
0.1399811056	tools from
0.1399662389	availability of
0.1399581178	data era
0.1399206992	against such attacks
0.1399045073	layer neural network with
0.1398590050	the underlying idea
0.1398461195	optimal trade off
0.1398274788	the loss function
0.1398149348	approach for finding
0.1398140296	considerably more
0.1397927997	a large collection of
0.1397770810	structure of
0.1397426283	an active area
0.1397364205	optimization methods for
0.1397260681	methods for non convex
0.1397155133	* n
0.1397065790	one way
0.1397039762	elements from
0.1397033563	nonlinear system
0.1396934848	simple yet
0.1396866353	a linear model
0.1396752500	n \ delta
0.1396715709	a small
0.1396627056	evaluation results show
0.1396552529	very effective
0.1396473382	make decisions
0.1396414564	non convex case
0.1396399566	rather than just
0.1396249035	best fit
0.1396226433	the training phase
0.1396132563	$ approximation guarantee
0.1396090715	under represented
0.1396057881	to recognize
0.1395921172	agreement with
0.1395907378	building block for
0.1395740109	each user's
0.1395644884	illustrated using
0.1395637426	not so
0.1395556777	a popular tool
0.1395518757	methods for finding
0.1395335853	co learning
0.1395267340	framework to quantify
0.1395265727	$ x_n
0.1395200728	quantitative evaluation of
0.1395033979	this result holds
0.1394835894	helpful for
0.1394526572	unbounded number of
0.1394398148	approach based on deep
0.1394381675	proposed to handle
0.1394247528	financial time
0.1394211342	range of real world
0.1394014871	both academia and
0.1393809822	even before
0.1393802665	accurate prediction of
0.1393784423	comparison to state of
0.1393685198	optimism in
0.1393637548	broadly applicable to
0.1393621764	problem of predicting
0.1393393549	at least as good as
0.1393193172	+ o
0.1392680761	applications such as
0.1392656158	very expensive
0.1392636424	bayesian inference via
0.1392567369	on improving
0.1392338144	an important area
0.1392244266	the most important
0.1392188193	non interpretable
0.1391941073	complex relationships between
0.1391911988	becomes extremely
0.1391804315	substantially less
0.1391725701	to evaluate
0.1391705844	the low data regime
0.1391698945	method to improve
0.1391623114	1 \ frac
0.1391539773	a growing body
0.1391478345	far from
0.1391430236	using multi task
0.1391138814	many practical applications
0.1391000629	the art accuracies
0.1390703513	+ l
0.1390642630	learning one hidden layer
0.1390586848	a sequential decision making
0.1390571594	physical properties of
0.1390465709	the ibm
0.1390209820	approach by applying
0.1390131475	algorithms in machine learning
0.1390004534	the convex and
0.1389935462	an accurate
0.1389896207	adopted by
0.1389867500	an input image
0.1389438341	a deep learning architecture
0.1389393799	significant gains in
0.1389011607	a state space model
0.1388970962	designed for
0.1388873551	stochastic bandits with
0.1388752419	representational power of
0.1388619560	sequence of observations
0.1388463460	variance trade off
0.1388387269	the art deep learning
0.1388166052	restrictions on
0.1388061283	while still allowing
0.1388054654	unknown mean
0.1387922073	more and more
0.1387785245	robustness of deep neural
0.1387636202	$ m \ ll
0.1387538778	far beyond
0.1387536485	data while preserving
0.1387535826	spent on
0.1387506736	an unbiased
0.1387307664	a key requirement
0.1387269843	a synthesis
0.1386906986	the baum welch
0.1386476959	$ \ mathbf l
0.1386462958	$ \ textit
0.1386424262	a remedy
0.1386373091	each subject
0.1386201781	better generalization performance
0.1386141199	significantly better results than
0.1386100080	a surprising
0.1385747622	an objective function
0.1385733042	approach to estimating
0.1385728486	creating new
0.1385693900	detrimental to
0.1385537159	$ \ xi
0.1385526803	needed to
0.1385416494	to construct
0.1385259055	based on convolutional neural networks
0.1385186453	practical aspects of
0.1384986201	the most popular
0.1384819358	scales well
0.1384814080	a song
0.1384437537	new objects
0.1384331204	efficient algorithm for
0.1384069588	non convex objective
0.1383633899	$ \ alpha 0
0.1383608479	based on neural networks
0.1383507444	most relevant
0.1383394005	algorithm for clustering
0.1383259853	improvements in performance
0.1383057788	the state of
0.1382995981	validated using
0.1382968649	used in conjunction with
0.1382909848	a probabilistic generative model
0.1382866539	and long short term memory
0.1382767992	a deep network
0.1382708762	evaluated through
0.1382640789	suffices to
0.1382507657	computational complexity compared to
0.1382341809	usually done
0.1382321169	stored in
0.1381866085	the original training set
0.1381636001	information between
0.1381412079	eigenvalues of
0.1381284379	proved to
0.1381214933	number of operations
0.1381195207	data augmentation using
0.1381117175	starting point for
0.1380958942	$ regularization
0.1380864717	held by
0.1380830452	recent surge of interest in
0.1380762961	mostly focused on
0.1380735790	the true underlying
0.1380179313	small fraction of
0.1380110634	a trained neural network
0.1380030027	the proposed methods outperform
0.1379912742	important class of
0.1379896183	methods for training
0.1379878516	a decision tree
0.1379614091	_1 \
0.1379530288	a nested
0.1379239745	joint distribution over
0.1378972886	a common challenge
0.1378945449	primary goal of
0.1378843887	weighted mean
0.1378652835	solely on
0.1378413313	a single neural network
0.1378377181	10 \ times
0.1378345657	any kind
0.1378332392	uci data
0.1378227850	interpretation of
0.1377969236	widely used techniques
0.1377860554	often ignored
0.1377666132	each frame
0.1377624660	for sparse signal recovery
0.1377559335	the deep learning model
0.1376671728	based on stochastic gradient descent
0.1376663695	towards making
0.1376645646	a small set of
0.1376584546	shown to perform well
0.1376554328	preferences over
0.1376478227	existing first order
0.1376305696	utility trade off
0.1376289087	a social network
0.1376240538	commonly encountered in
0.1376173720	information provided by
0.1376052231	the underlying geometry
0.1376011301	more frequently
0.1376003912	in order to achieve
0.1375977659	by injecting
0.1375838966	1 norm
0.1375739389	a data set
0.1375722776	by extending
0.1375590117	body of work
0.1375467626	convergence rates of
0.1375356231	the optimal
0.1375207241	advertising system
0.1375153450	efficiently sample from
0.1374820893	x \ in \ mathbb
0.1374782321	and kernel ridge regression
0.1374635259	from twitter
0.1374515385	resemblance to
0.1374379567	tackled using
0.1374321855	numerical tests on
0.1374220380	not too large
0.1374186872	a wrapper
0.1374150434	$ differential privacy
0.1373937824	these results suggest
0.1373738875	system wide
0.1373464591	the optimal predictor
0.1373407777	terms of accuracy
0.1373244256	$ x ^
0.1373095335	contributed to
0.1372849227	approximation guarantees for
0.1372790277	time fourier transform
0.1372759483	an unknown distribution
0.1372633325	the high dimensional
0.1372528392	three levels
0.1372280246	such as mobile phones
0.1372277221	ask if
0.1372225435	learning on manifolds
0.1372021850	by iterating
0.1371869748	building blocks of
0.1371869159	removed from
0.1371783072	important aspect of
0.1371741003	the art results on
0.1371669599	related work
0.1371583073	provide insights on
0.1371464288	different lengths
0.1371097953	sub task
0.1371002732	collected by
0.1370992412	the former
0.1370989542	problem of solving
0.1370948152	bounded away
0.1370921562	no free
0.1370898528	and error prone
0.1370577719	architecture to learn
0.1370562441	bit per
0.1370536845	bayesian optimization using
0.1370468992	by explicitly modeling
0.1370292438	techniques to improve
0.1370218623	another contribution
0.1370076335	a fixed number of
0.1370071753	amounts of training
0.1370066623	a tree based
0.1370064760	the context of
0.1369927008	examination of
0.1369911807	analysis indicates
0.1369899804	deviation from
0.1369851056	significantly outperforms other
0.1369806566	various downstream tasks
0.1369795474	then proceed
0.1369764455	reduced by
0.1369744554	zero error
0.1369673635	the brazilian
0.1369643125	well explored
0.1369603270	any order
0.1369549255	set of assumptions
0.1369421828	class of
0.1369129950	rademacher complexity of
0.1368745353	a low dimensional latent
0.1368731077	sample complexity of learning
0.1368693242	$ \ mathbb r ^ n
0.1368632525	the dantzig selector
0.1368601388	nash equilibria in
0.1368542775	formal definition of
0.1368500732	levels of
0.1368442748	mild assumptions on
0.1368300295	based on deep
0.1368249346	different characteristics
0.1368177576	survey on
0.1368141199	significantly better performance than
0.1367892393	generalizes better
0.1367832544	to warm start
0.1367793716	a multi channel
0.1367723290	learning algorithm based on
0.1367401734	\ psi ^
0.1367365165	starting with
0.1367361651	given rise to
0.1367306388	guidelines for
0.1367304345	\ kappa_ \
0.1367302769	empirical evaluation of
0.1367258252	this study
0.1367255785	learn about
0.1367166171	better interpretability
0.1367067254	particularly suitable
0.1367039859	pieces of
0.1366986493	variance reduction for
0.1366892626	more likely to
0.1366505758	a new regularizer
0.1366387942	an improved version
0.1366359646	a unified treatment
0.1366287239	projected into
0.1366065679	more prevalent
0.1366000487	large amount of
0.1365975522	existing methods focus on
0.1365817838	each word
0.1365794245	overfit to
0.1365644894	a gradient free
0.1365226466	learning in high dimensional
0.1365107560	to accomplish
0.1365101028	a bi level
0.1365079620	built using
0.1364839355	a nonparametric bayesian
0.1364831854	missed by
0.1364732159	each group
0.1364694679	over graphs
0.1364499202	computing time
0.1364443620	the resultant
0.1364184465	order to build
0.1364056545	standard models
0.1363905267	various machine learning tasks
0.1363729372	an mdp
0.1363569165	compositions of
0.1363445893	a simple modification
0.1363417437	a variational approximation
0.1362870516	estimated from
0.1362590432	algorithm for nonconvex
0.1362477330	the tm
0.1362222965	calculated from
0.1361953465	involved in
0.1361865413	different datasets
0.1361802927	start from
0.1361705501	renewed interest in
0.1361622135	the information theoretic lower bound
0.1361604755	provide theoretical results on
0.1361336248	good initialization
0.1360440987	by analyzing
0.1360292745	to circumvent
0.1360124793	two types of
0.1359938794	for medical image segmentation
0.1359897067	ready to
0.1359871123	without relying on
0.1359840779	very quickly
0.1359813699	derived by
0.1359756943	exploration through
0.1359716105	augmented with
0.1359467866	sparse linear combination of
0.1358876068	n \ epsilon
0.1358827914	systematic comparison of
0.1358826840	practical interest
0.1358791237	searches for
0.1358609253	detection via
0.1358481798	of interest
0.1358234420	a weighting
0.1358120372	the target model
0.1358085220	many real world scenarios
0.1358060292	experimentally show
0.1357984794	screening rules for
0.1357774166	a faster convergence rate
0.1357701234	graph neural network for
0.1357700242	cross entropy loss for
0.1357526040	tasks ranging from
0.1357460120	transfer learning to
0.1357418826	framework for reasoning
0.1357332909	chosen by
0.1357288780	logistic regression with
0.1357186188	each query
0.1357053965	return on
0.1356838948	features learned by
0.1356498521	concentrates on
0.1356442093	known classes
0.1356436033	posterior distributions over
0.1356288506	magnitude improvement in
0.1356267122	a high dimensional feature
0.1356250765	^ * =
0.1356163454	a data dependent
0.1356104777	used in conjunction
0.1356077282	using satellite
0.1355838337	= \ tilde
0.1355779537	analysis using
0.1355715450	in order to reduce
0.1355399259	method to detect
0.1355384581	to recover
0.1354991093	levels of accuracy
0.1354931134	art performance on
0.1354900400	estimated using
0.1354758898	the resistance
0.1354526071	graph models
0.1354395139	over 50
0.1354145154	an additive error
0.1354108367	appears in many
0.1354041707	large amount
0.1353798285	r ^ k
0.1353771294	perceived by
0.1353632819	power of
0.1353559950	probability distributions over
0.1353547905	localization using
0.1353405121	+ s
0.1353299234	experiments performed on
0.1352654347	with bayesian neural networks
0.1352410492	data and real data
0.1352317466	the target distribution
0.1352165814	the proposed method performs
0.1352001579	results in
0.1351963266	distinguishable from
0.1351789406	stationary points of
0.1351720097	framework to characterize
0.1351629269	extremely well
0.1351616189	the bellman equation
0.1351609233	as black boxes
0.1351395877	unions of
0.1351369766	this question
0.1350878317	net work
0.1350836671	a mixed integer
0.1350764537	captured through
0.1350444017	careful tuning of
0.1350422893	very high
0.1350417853	the so called
0.1350277270	features extracted by
0.1350225106	very challenging
0.1350154194	to sequence neural
0.1350100208	start with
0.1350081682	the literature
0.1350007537	two real datasets
0.1349971576	interference between
0.1349936134	$ r ^ 2
0.1349688511	selection for gaussian
0.1349532161	obtains better
0.1349425351	a permutation
0.1349386658	a key factor
0.1349316306	most previous works
0.1349264844	recordings from
0.1349180792	thus establishing
0.1349029281	primarily on
0.1348941301	of utmost importance
0.1348828105	fields like
0.1348791277	a single trajectory
0.1348376770	impressive performance on
0.1348174751	contain sensitive
0.1347989891	implications for
0.1347952829	looks at
0.1347707771	classification under
0.1347665218	network structure from
0.1347389713	any black box
0.1347262344	a broad class of
0.1347197874	the real world
0.1347111021	across different
0.1346889891	dedicated to
0.1346566546	a u net
0.1346441690	time scale
0.1346259908	during testing
0.1346235626	method to determine
0.1346176712	3d structures
0.1345958126	regions of
0.1345681518	+ \ sqrt
0.1345383544	k shot
0.1345382801	while also providing
0.1345371537	experimented with
0.1345087766	proceed by
0.1345040892	calling for
0.1344873750	results on image
0.1344773620	1 m
0.1344739229	an ongoing
0.1344501969	loss surfaces of
0.1344453225	data from real
0.1344451640	to assign
0.1343984788	the model
0.1343939068	reflected in
0.1343854733	an attention based
0.1343761719	well trained
0.1343714498	fine tuning of
0.1343674195	sort of
0.1343673180	detailed analysis of
0.1343598685	the mixed membership
0.1343443753	model based clustering of
0.1343100338	relevant information from
0.1343071777	on encrypted data
0.1342470110	the original problem
0.1342389170	for large scale applications
0.1342339661	approach to improve
0.1342119607	widely used in practice
0.1342103578	$ \ alpha =
0.1342063613	used to guide
0.1341941298	measured using
0.1341829531	a sufficient condition
0.1341688974	a linear rate
0.1341670856	the underlying graph structure
0.1341655170	a concise
0.1341493766	an assortment
0.1340999122	range of settings
0.1340959628	the proposed technique
0.1340841503	a regularized version
0.1340705238	the batch size
0.1340681073	run on
0.1340661198	present empirical results on
0.1340299954	in training deep neural
0.1340223870	benchmark datasets show
0.1340171822	the graph structure
0.1339882282	to simulate
0.1339711148	problem of controlling
0.1339500714	the knowledge gradient
0.1339263999	the importance weighted
0.1339244831	consists of two
0.1339197981	$ \ times
0.1339054834	a certain amount
0.1339037098	the phase transition
0.1338838686	trapped in
0.1338826107	a proof of concept
0.1338723816	originally proposed for
0.1338684490	a computationally efficient algorithm
0.1338321682	the cifar 10 dataset
0.1338309766	the training dataset
0.1338185690	translates to
0.1337969868	a dynamic network
0.1337800847	a sequential monte carlo
0.1337750206	produces state of
0.1337674454	computed via
0.1337654966	practical implications of
0.1337547657	several real life
0.1337407401	the ultimate
0.1337391765	perform significantly better than
0.1337360205	compared to other approaches
0.1337328804	performance of deep learning
0.1337296962	\ mathcal b
0.1337179554	but rather
0.1337160026	comes with
0.1337157389	$ dp
0.1337018734	an optimal solution
0.1336982196	general non convex
0.1336956875	a personalized
0.1336893254	number of categories
0.1336725415	by virtue of
0.1336677230	determination of
0.1336559853	the expected cumulative
0.1336529034	automated detection of
0.1336506350	number of blocks
0.1336475843	number of time steps
0.1336457587	a natural choice
0.1336438471	this approach
0.1336389725	trade off in
0.1336348385	control over
0.1336085577	3d objects
0.1335946083	out perform
0.1335750855	a greedy algorithm
0.1335730740	a major
0.1335415493	to infinity
0.1335411231	flexible class of
0.1335040114	mean rewards
0.1334978538	| \
0.1334943368	often encountered
0.1334925369	set of relevant
0.1334884947	physics models
0.1334807412	a carefully designed
0.1334489054	substantial gains in
0.1334402099	experiments to demonstrate
0.1334304479	in machine learning
0.1334011626	used to construct
0.1333946916	less time than
0.1333688047	$ \ mathrm poly
0.1333615942	singular values of
0.1333391644	machine learning models trained
0.1333311012	research focuses on
0.1333306484	great promise in
0.1333146072	selected from
0.1333026991	from pixels
0.1332948369	agree on
0.1332946856	for sequential decision making
0.1332671330	sub images
0.1332548038	clustering method based on
0.1332546600	$ \ mathbf x
0.1332530584	order of magnitude faster than
0.1332412452	problem of optimizing
0.1332402128	hardness of
0.1332240717	cast into
0.1332106558	other baseline methods
0.1332059663	n \ rightarrow
0.1331564828	model for learning
0.1331357711	finding good
0.1331329477	perceived as
0.1331315138	$ \ frac
0.1331102596	leads to better performance
0.1330974995	non cooperative
0.1330775900	$ l ^
0.1330666379	end to end neural network
0.1330472490	to gain insight
0.1330318018	results apply to
0.1330301889	occurrences of
0.1330054355	by studying
0.1330015766	adversarial training with
0.1329715946	property of
0.1329618715	features derived from
0.1329614778	\ ge 1
0.1329324998	number of selected
0.1329233055	the de facto
0.1329199009	time dynamics
0.1329150104	a practical method
0.1329135900	the graphical lasso
0.1328841171	development of deep learning
0.1328739484	learning for high dimensional
0.1328701831	many desirable properties
0.1328661236	with skip connections
0.1328625397	any prior knowledge
0.1328609475	an anomaly
0.1328329687	does not assume
0.1328305757	$ \ mathbf y
0.1328297568	informed by
0.1328274788	the feature space
0.1328252502	natural extension of
0.1328175760	basic properties of
0.1328108775	this result
0.1327952987	range of fields
0.1327881159	theoretical bound on
0.1327875676	based brain computer
0.1327756543	the kernel trick
0.1327670114	variations within
0.1327496936	patients with
0.1327063924	reach state of
0.1326998867	semantic structure of
0.1326866353	the learned model
0.1326645788	causal relationships from
0.1326631166	a qualitative
0.1326426846	in terms of prediction accuracy
0.1326390420	recent literature on
0.1326357735	more amenable
0.1326346646	sampling from
0.1326315862	each sample
0.1326269314	trained directly on
0.1326263270	approach for automatic
0.1326201184	fall short of
0.1326053843	two objectives
0.1325993651	this setting
0.1325983641	network to approximate
0.1325870084	during inference
0.1325607301	classifier based on
0.1325607030	joint models
0.1325409962	while achieving similar
0.1325374044	signal recovery from
0.1325276533	a 100
0.1325151590	recently seen
0.1324942571	three popular
0.1324784919	does not suffer
0.1324502777	after introducing
0.1324472891	different levels of
0.1324356196	approach to predict
0.1324208002	stochastic non convex
0.1324135348	efficient computation of
0.1324129052	the long run
0.1324098471	data matrix into
0.1324016931	despite recent advances
0.1323862039	1 n
0.1323624057	without strong
0.1323394574	data for training
0.1323138963	less sensitive
0.1322933786	thought to
0.1322921235	representations through
0.1322685549	a novel graph based
0.1322674476	restriction on
0.1322541880	another type
0.1322434806	suite of
0.1322397411	usually assume
0.1322388739	bridge between
0.1322278322	the art solutions
0.1321950550	guarantees for
0.1321765760	do not improve
0.1321688268	number of hyperparameters
0.1321677392	the finite sum
0.1321501701	the step size
0.1321471540	typically relies on
0.1321369581	modeled using
0.1321039609	a non asymptotic analysis
0.1320932054	datasets to demonstrate
0.1320890911	$ wasserstein distance
0.1320889899	through extensive simulations
0.1320862255	random subsets of
0.1320786522	$ \ | \ cdot
0.1320687755	four times
0.1320372288	spectral algorithms for
0.1320174788	the curse
0.1320105796	done by
0.1319896924	a key tool
0.1319786752	recent successes in
0.1319722080	alpha 1
0.1319620912	\ leq 1
0.1319549531	an augmented
0.1319416494	a result
0.1319279174	better accuracy than
0.1319187297	reconstructed from
0.1318719216	advances in deep neural
0.1318462423	theorems for
0.1318129732	simple and computationally
0.1318065403	introduced here
0.1318042505	fed to
0.1317990682	model for large scale
0.1317905245	$ median
0.1317846167	required for
0.1317790318	distribution induced by
0.1317707619	information theoretic approach to
0.1317553715	produces better
0.1317508812	based on combining
0.1317402865	train machine learning models
0.1317338882	self imitation
0.1316854690	the number of
0.1316802995	bound on
0.1316721117	the ease
0.1316477357	an optimized
0.1316434180	popular in machine
0.1316304353	dynamic system
0.1316078285	self consistency
0.1315921172	drawing on
0.1315864887	forms of
0.1315817557	the underlying physics
0.1315733446	fitted by
0.1315635347	demonstrated on
0.1315620728	concentration of
0.1315443261	applied to real world
0.1315429459	intended to
0.1315349652	measured at
0.1315281953	each edge
0.1315160903	\ bf r
0.1315072567	the training distribution
0.1314968480	a local search
0.1314891528	the next stage
0.1314619578	also provide evidence
0.1314191981	does not rely on
0.1314179770	number of elements
0.1314062832	this work investigates
0.1313995291	the true rank
0.1313908328	a massively
0.1313836426	build on
0.1313671112	availability of data
0.1313669188	jointly optimized with
0.1313650988	n ^ 1 +
0.1313203139	by dividing
0.1313158798	$ n \ times m
0.1313113457	standard deviation of
0.1312914209	to acquire
0.1312756316	3d human
0.1312690360	appeared in
0.1312654503	encountered in
0.1312631481	several benchmark datasets
0.1312565023	$ penalty
0.1312523377	several recent works
0.1312488685	key issue in
0.1312484840	a euclidean space
0.1312444056	an adaptive algorithm
0.1312338586	access only to
0.1312237210	$ c
0.1312201690	a layered
0.1311927356	a recent result
0.1311702392	an unsupervised learning
0.1311644065	assisted by
0.1311478100	an excellent
0.1311432558	the same class
0.1311403046	distributed estimation of
0.1311324328	a joint model
0.1311287239	interface between
0.1311126338	over 100
0.1311058265	reduced number of
0.1311054135	interesting properties of
0.1310979776	a finite sum
0.1310976856	= 1 ^ m
0.1310509385	parameter value
0.1310442364	based on reinforcement learning
0.1310395127	with 20
0.1310221169	relate to
0.1310218189	points of interest
0.1310064941	popularity of deep
0.1309859644	improvements in accuracy
0.1309722965	approximated using
0.1309563565	$ v
0.1309519910	an utterance
0.1309342027	a trust region
0.1309215481	the resulting estimator
0.1309096747	provide conditions under
0.1309093530	crucial role in
0.1309046407	tight up to
0.1308977045	for high dimensional sparse
0.1308952718	the straight through
0.1308899452	attempts to
0.1308767672	time and sample complexity
0.1308484026	asymptotic properties of
0.1308312600	thus providing
0.1308250865	data from
0.1308213289	non regularized
0.1308150781	learning algorithm for
0.1307987449	optimization method for
0.1307941671	$ n \ times
0.1307849571	several drawbacks
0.1307762420	algorithm for sampling
0.1307699780	at par
0.1307641960	by asking
0.1307583262	many problems in machine learning
0.1307525410	relatively short
0.1307497218	design of effective
0.1307449182	for instance
0.1307418482	more restrictive
0.1307320898	the data manifold
0.1307278764	spectrum of applications
0.1307153301	of low rank matrices
0.1307081017	distribution of
0.1307081017	accuracy of
0.1307021495	focus on modeling
0.1306891074	method to design
0.1306860465	at high risk
0.1306851837	a key step
0.1306784121	an embedded
0.1306718755	an extension of
0.1306654618	attacks on
0.1306623619	generate new
0.1306490955	model for multi
0.1306388472	deployment on
0.1306280167	quantities of data
0.1306094393	$ x ^ *
0.1305801228	three types of
0.1305618179	assessment of
0.1305611540	careful analysis of
0.1305548352	special class of
0.1305210957	a novel neural architecture
0.1304879022	different activation functions
0.1304822863	lying on
0.1304592346	an intrinsic reward
0.1304584581	the total variation
0.1304528447	estimation under
0.1304520607	hierarchy of
0.1304517255	a geometrical
0.1304466077	sampler for
0.1304279079	inspired from
0.1304235181	at once
0.1304122528	tolerant to
0.1304106274	consistency of
0.1304067554	60 \
0.1304031235	on real data sets
0.1303994090	approach towards
0.1303886517	a broader
0.1303815846	the underlying dynamics
0.1303782281	the entire data set
0.1303173739	three different
0.1303119865	theoretical explanation for
0.1303030037	necessarily lead to
0.1302853785	and long short term
0.1302786037	structured graphical models
0.1302766335	gaussian process regression with
0.1302452079	introduction of
0.1302016164	^ \ omega
0.1302015980	the effectiveness of
0.1301950139	a deep architecture
0.1301916494	challenging due to
0.1301673241	per update
0.1301667985	recognition models
0.1301555783	convergence of
0.1300910084	detection based on
0.1300758393	detection models
0.1300700602	the implicit regularization
0.1300477176	easier to
0.1300465949	further extend
0.1300194228	still exist
0.1300132167	on two real world datasets
0.1299924996	\ log m
0.1299923340	method to combine
0.1299793776	very similar
0.1299772890	an obstacle
0.1299769508	computer interfaces
0.1299722965	outperformed by
0.1299548195	the alternating direction method
0.1299533066	demonstrated by
0.1299384873	using backpropagation
0.1299373717	fixed points of
0.1299241702	to predict future
0.1299194229	a binary classification problem
0.1299073360	probabilistic interpretation of
0.1298990108	representations of
0.1298866771	out of sample data
0.1298814713	fixed set of
0.1298806724	then train
0.1298723128	piece of
0.1298363984	x |
0.1298327398	in sharp contrast
0.1298318474	already trained
0.1297807792	transfer learning using
0.1297758877	needs to
0.1297568865	l ^ q
0.1297520066	a pac bayesian
0.1297500894	the dimensions of
0.1297488487	begins with
0.1297429340	$ \ delta =
0.1297130148	tasks with sparse
0.1297119652	an attempt
0.1297103946	an integral
0.1297099706	a bayesian neural network
0.1297040514	different groups
0.1296966989	with missing entries
0.1296963766	near optimal sample
0.1296924149	a single point
0.1296898734	classifiers without
0.1296860346	natural class of
0.1296734256	a near optimal
0.1296586656	4 times
0.1296360419	for change point detection
0.1296151728	value function learning
0.1296137990	this paper proves
0.1296114507	on real world
0.1296046556	for example
0.1295985678	non metric
0.1295696504	a normalizing flow
0.1295674454	interpolation between
0.1295523123	best possible
0.1295461304	an acquisition function
0.1295450827	more variables
0.1295332005	fail to model
0.1295029693	x =
0.1294848998	a gradient based
0.1294837739	the most common
0.1294634481	to promote
0.1294230832	an imitation learning
0.1294051973	wishes to
0.1293957232	generalize to new
0.1293917805	many contemporary
0.1293697219	with high confidence
0.1293636595	relatively little attention
0.1293459685	sparse and low
0.1293363285	achieve good
0.1293362043	majority of current
0.1293338128	accurate estimates of
0.1293280802	\ `
0.1293265169	a single agent
0.1293232901	other types of
0.1293197595	at different scales
0.1292927936	^ 1 3 t ^
0.1292887871	the target
0.1292841004	on image classification tasks
0.1292672379	preliminary work
0.1292642806	2 ^
0.1292239960	+ \ log
0.1291886551	$ 2
0.1291840044	simulation models
0.1291827226	intrinsic dimensionality of
0.1291779398	several recently proposed
0.1291718048	k space
0.1291694029	kind of
0.1291252030	for few shot
0.1291181704	accuracy on
0.1290775264	methods for causal
0.1290668014	the core idea
0.1290622607	$ \ mathbb e
0.1290548338	new opportunities
0.1290384581	to implement
0.1290229159	a fixed number
0.1290218828	key elements of
0.1290055218	1 6
0.1290049577	$ \ min_
0.1289987255	the trained model
0.1289939161	real data example
0.1289813660	central to
0.1289293382	three categories
0.1289269987	the optimal convergence rate
0.1289266320	approach for training
0.1289147621	a global optimum
0.1289090164	widely used in
0.1288639214	class of neural networks
0.1288436057	this paper tackles
0.1288419106	training of large
0.1288354679	engaged in
0.1288292628	directly from data
0.1288214758	problem of semi supervised
0.1288113585	the unit sphere
0.1288100000	an instantiation
0.1288049161	the current
0.1287852455	a probabilistic framework
0.1287568348	result holds for
0.1287209051	working on
0.1287057338	an auroc
0.1286970652	method relies on
0.1286775119	sequence of
0.1286613884	between consecutive
0.1286461120	tasks such as
0.1286221468	the minimum description
0.1286098738	a few
0.1285843076	multi task learning with
0.1285819021	an external
0.1285801311	time segments
0.1285792012	in high dimensional statistics
0.1285759430	neural networks trained by
0.1285654503	included in
0.1285642548	an early stage
0.1285630964	method by applying
0.1285624214	mdps with
0.1285407862	a fundamental issue
0.1285016679	exact recovery of
0.1284948321	log d
0.1284807542	signals from
0.1284636325	each task
0.1284478523	a handful of
0.1284462668	complexity bounds for
0.1284290821	iterates between
0.1283997858	point out
0.1283893856	the aid of
0.1283785578	outstanding performance of
0.1283664101	to remove
0.1283656432	quality of
0.1283348892	$ k = 2
0.1283302786	lipschitz continuity of
0.1283285829	angles between
0.1283265078	$ \ mathbf u
0.1283182236	emerges from
0.1282806433	a natural question
0.1282645241	experiment with
0.1282475876	each variable
0.1282444639	anomaly detection in
0.1282385641	a local optimum
0.1282232701	comparative study of
0.1282074962	an unprecedented
0.1281797839	the usual
0.1281795800	$ center
0.1281723832	the exact posterior
0.1281619976	constrained by
0.1281542913	edges between
0.1281503222	the input graph
0.1281407017	training of machine learning
0.1281224307	provable guarantees for
0.1281190470	\ nabla ^
0.1281154503	dependency on
0.1281044020	occurrence of
0.1281017046	superior performance of
0.1281001399	allocated to
0.1280870714	an item
0.1280438949	defined in terms
0.1280261116	a warm start
0.1280163031	high dimensional data in
0.1280088462	achievable by
0.1280075149	weighted subset of
0.1279911752	approach to generate
0.1279818065	previously possible
0.1279687037	bind to
0.1279677679	most informative
0.1279663353	methods on benchmark
0.1279594947	new skills
0.1279543742	a simple architecture
0.1279400919	varying number of
0.1279302239	arising in machine
0.1279287888	increasingly used
0.1279127025	optimized by
0.1279082005	this idea
0.1278860863	a fusion
0.1278761637	times more
0.1278643999	more than 10
0.1278631056	challenge for machine
0.1278492297	deep learning architectures for
0.1278408203	two sample
0.1278396476	tool in machine
0.1277849303	achieved via
0.1277800689	asymptotic analysis of
0.1277759008	an attribute
0.1277691940	sampled at
0.1277538603	against poisoning
0.1277430865	an analogous
0.1277344835	extensive evaluations on
0.1277234908	number of predictors
0.1277194661	the loss landscape
0.1276869001	method to extract
0.1276856314	as well
0.1276854690	the performance of
0.1276646828	converges to zero
0.1276503374	enabler for
0.1276451663	more interpretable
0.1276434731	the original network
0.1276285223	a formal
0.1276253533	methods for
0.1276199022	inference in graphical
0.1276025119	robustness to
0.1275997716	accurate than
0.1275951822	wer on
0.1275931956	each document
0.1275633420	flexible models
0.1275498221	competitive performance on
0.1275421270	desirable properties of
0.1275384581	to explain
0.1275006035	a direct impact
0.1274960058	specification of
0.1274946853	each action
0.1274824095	linear convergence rate for
0.1274680890	favorably with
0.1274596077	use case
0.1274328034	going through
0.1274006727	success in learning
0.1273746069	stationary point of
0.1273507533	this paper extends
0.1273495239	to answer questions
0.1273475119	the underlying graph
0.1273199185	function defined on
0.1273184746	a simple probabilistic
0.1273088893	complementary information from
0.1272981856	+ k
0.1272937969	a single task
0.1272788245	small set of
0.1272779707	\ boldsymbol x ^ \
0.1272672699	^ s
0.1272553839	compare against
0.1272468797	time consumption
0.1272463111	moments of
0.1272242705	for strongly convex
0.1272111446	based q learning
0.1272077437	lie on
0.1271862725	path length of
0.1271852003	sublinearly with
0.1271821478	by jointly optimizing
0.1271791328	$ \ sqrt
0.1271785670	results on real world
0.1271479787	an important tool
0.1271464820	library for
0.1271407797	channel models
0.1271387524	compensate for
0.1271316231	this task
0.1271271108	on estimating
0.1271107931	$ \ omega \ left
0.1271093589	the decision making process
0.1271032938	wide array of
0.1270961639	by considering
0.1270930768	chances of
0.1270809377	model for text
0.1270768666	performance in terms
0.1270746740	the central limit theorem
0.1270698857	results show improved
0.1270678414	direct comparison of
0.1270647648	vital for
0.1270596947	the experimental results demonstrate
0.1270503651	a machine learning
0.1270490431	an efficient algorithm
0.1270163564	of 0.94
0.1269976585	by modifying
0.1269867217	increase in
0.1269797208	while satisfying
0.1269654982	the aforementioned
0.1269616576	holds even
0.1269458360	the openai gym
0.1269403625	key advantage of
0.1269247003	correlations within
0.1269188718	propose two novel
0.1269015254	obtain better
0.1268899557	trained end to end on
0.1268726106	than previous methods
0.1268626584	by reformulating
0.1268575732	a 5
0.1268462574	3d environments
0.1268404994	lower bound of
0.1268379943	an importance sampling
0.1268376609	succeeded in
0.1268219258	connected by
0.1268027343	by constraining
0.1267979850	approach improves upon
0.1267911431	essential tool for
0.1267903371	does not impose
0.1267723135	unaware of
0.1267715196	generalization performance than
0.1267708126	effect of
0.1267601890	six benchmark datasets
0.1267331545	these notes
0.1267305445	variety of benchmarks
0.1267209920	prior distribution over
0.1267141126	behavior of
0.1267046734	the governing equations
0.1267021069	self supervised tasks
0.1266997373	reduced set of
0.1266839814	flexible family of
0.1266834036	easy to use
0.1266824151	results of several
0.1266710890	approaches based on
0.1266648847	\ lambda_ \
0.1266524646	an agent learns
0.1266409156	$ k = o
0.1266301148	to resolve
0.1266285001	self learning
0.1266007691	a new direction
0.1265848521	released under
0.1265737686	lie at
0.1265726479	learned via
0.1265461820	reductions in
0.1265447082	$ \ rm
0.1265406224	two sources
0.1265395420	gaussian processes for
0.1265294653	light on
0.1265244697	an auto
0.1265138125	$ \ mathcal l
0.1264993446	a rational
0.1264412798	assumptions on
0.1264250663	much greater
0.1264115332	a taxonomy
0.1264036912	with regards to
0.1263904927	popular choice for
0.1263879306	linear relationship between
0.1263794411	with relu activation
0.1263764143	obtained after
0.1263312380	with 8
0.1263115575	two stage method
0.1263084485	sequential models
0.1262984418	3 2
0.1262894611	to get
0.1262887979	problem of online learning
0.1262745772	struggle with
0.1262569237	relevant to
0.1262549588	more frequent
0.1262081875	inference in bayesian
0.1261786083	removal of
0.1261737646	formally show
0.1261467894	in high dimension
0.1261439026	foundation for
0.1261389631	assessed by
0.1261282025	mean zero
0.1261000496	\ mathbf s
0.1260983126	an uncertainty
0.1260930390	on 5
0.1260604200	\ times n
0.1260530690	while maintaining similar
0.1260374786	an important step
0.1260321930	often require
0.1260231692	gradient descent on
0.1260165008	a quantitative
0.1260099775	key properties of
0.1260018224	best algorithm
0.1259960764	x ^ t
0.1259892957	graph g
0.1259858971	based on pairwise
0.1259744584	quickly find
0.1259645504	a small subset
0.1259639597	technique for
0.1259581059	the tensor train
0.1259540812	central challenge in
0.1259519713	accuracy than
0.1259340599	inference system
0.1259235903	construction of
0.1258858533	complexity of learning
0.1258543436	compared with state of
0.1258473228	the dgm
0.1258379121	development of
0.1258300181	a parallel
0.1258222450	dimension of
0.1258167519	degree of
0.1257732078	via gradient descent
0.1257472685	holds for
0.1257247266	a dual
0.1257186069	several advantages
0.1256963801	discussion on
0.1256742496	real time detection
0.1256606291	1 k
0.1256573538	number of units
0.1256205297	comparable to state of
0.1256187689	the goal
0.1256144517	implemented in
0.1256095302	bayesian inference for
0.1256054307	number of experts
0.1255984269	policy value
0.1255883922	based on past
0.1255795882	connection allows
0.1255787200	the log likelihood
0.1255649307	number of active
0.1255549243	for solving optimization problems
0.1255542807	a moving
0.1255425756	a mean field theory
0.1254950231	not straightforward
0.1254926756	images via
0.1254789603	local models
0.1254728274	second derivatives
0.1254662092	distances among
0.1254642505	merits of
0.1254429945	robustness of dnns
0.1254335881	a potential solution
0.1254306329	achieving good
0.1254253544	the uk
0.1254232825	framework to address
0.1254050946	range of continuous
0.1253997895	admitted to
0.1253931333	number of real world
0.1253812286	a realizable
0.1253726408	each player
0.1253679196	within cluster
0.1253640109	dependent on
0.1253401616	an efficient greedy
0.1253242275	another domain
0.1253217309	= x
0.1253217130	based on low rank
0.1253098368	to further improve
0.1253084679	subsets of data
0.1252903805	primarily due to
0.1252888553	confounded by
0.1252838638	a feature extractor
0.1252810858	non parametric statistical
0.1252755334	time critical
0.1252559767	limited by
0.1252555097	approach on synthetic
0.1252272759	different machine learning
0.1252080084	integrate into
0.1251966170	requires access to
0.1251925428	for training neural networks
0.1251666614	$ factor
0.1251641711	dimensional analysis of
0.1251506689	per image
0.1251469894	simulation and real
0.1251435461	distribution system
0.1251428715	in favor of
0.1251395513	$ 4
0.1251387005	order to increase
0.1251306778	generation of adversarial
0.1251068724	mixtures of gaussian
0.1251059727	the network
0.1250998771	by decomposing
0.1250817812	of central importance
0.1250792523	across many domains
0.1250747233	rapid development of
0.1250464972	two alternative
0.1250223903	features from
0.1250106157	number of objects
0.1249981374	reinforcement learning to learn
0.1249911473	needed for
0.1249776217	a patient's
0.1249767533	an extremely large
0.1249648236	\ in r ^
0.1249274665	particularities of
0.1249194229	a linear regression model
0.1249184113	propose to solve
0.1249007834	1 1
0.1248958126	view of
0.1248950153	no explicit
0.1248798727	a genetic algorithm
0.1248654503	encoded in
0.1248516956	on resource limited
0.1248066119	consequence of
0.1248050211	encourage further
0.1247906396	the netherlands
0.1247776942	network to perform
0.1247668421	for multi label learning
0.1247645844	fast adaptation to
0.1247470282	possible extensions
0.1247358152	an exploration
0.1247268531	well aligned
0.1247216640	propose \ emph
0.1247192810	prediction of
0.1247172906	widely used technique
0.1247120609	on two real world
0.1247113454	approximation capabilities of
0.1246976311	to penalize
0.1246972515	images generated by
0.1246967835	an advanced
0.1246912208	to personalize
0.1246870812	trade offs in
0.1246831503	longer time
0.1246816449	a multilayer perceptron
0.1246809188	the receiver operating
0.1246788958	in many applications
0.1246549025	\ end
0.1246518890	procedure based on
0.1246454558	transfer across
0.1246401057	on synthetic data sets
0.1246360312	\ log \ log
0.1246150795	the noise level
0.1245951015	\ boldsymbol m
0.1245594624	widely used method
0.1245526931	easier to use
0.1245501176	an edge
0.1245484903	to interpret
0.1245483056	a ranked list
0.1245427230	aiming to
0.1245339699	an aggregate
0.1245196438	the backward pass
0.1245106119	minimum value
0.1244908776	recent results on
0.1244745412	lie in
0.1244711872	20 \
0.1244673349	a binary classifier
0.1244650672	the recently introduced
0.1244460514	convergence properties of
0.1244447238	investigation of
0.1244383149	usually involves
0.1244146413	all agents
0.1244028289	on pascal
0.1243983185	by showing
0.1243925117	in machine learning research
0.1243902783	a dirichlet process mixture
0.1243729957	the unit ball
0.1243431178	outperforming other
0.1243383996	many factors
0.1242936734	does not allow
0.1242768617	2 dimensional
0.1242757076	regression under
0.1242518929	an idealized
0.1242517427	the key ingredient
0.1242390033	through numerical experiments
0.1242380881	terms of total
0.1242342977	in high dimensional data analysis
0.1242238517	not identifiable
0.1242130579	subset of data
0.1242080462	decisions about
0.1242019976	very high accuracy
0.1241740302	relative improvement in
0.1241541795	three dimensions
0.1241528136	tools for
0.1241422466	feature learning with
0.1241394994	sequences of
0.1241268090	by framing
0.1241066483	the solution space
0.1241066398	able to extract
0.1241061434	by observing
0.1241028382	a historical
0.1240954657	an operator
0.1240834475	based on estimating
0.1240801180	consistently better
0.1240753716	pointing to
0.1240702135	interpretability of machine
0.1240668912	sparse signals from
0.1240640832	fault diagnosis of
0.1240550558	relative importance of
0.1240519013	algorithm does not require
0.1240404422	detection in time series
0.1240127225	general methodology for
0.1240007549	propose to study
0.1239842203	datasets containing
0.1239795566	$ \ sf
0.1239719669	more intuitive
0.1239701462	algorithms to estimate
0.1239651556	other words
0.1239359775	the best way to
0.1239178766	deployed on
0.1238904749	also known as
0.1238862495	weakness of
0.1238638241	a constant step
0.1238571115	the main question
0.1238490454	just like
0.1238400174	hours of
0.1238380682	statistical analysis of
0.1238245326	a template
0.1238063190	recovery of
0.1237963800	this work presents
0.1237942820	ability of
0.1237940619	anomaly detection based on
0.1237923626	some popular
0.1237884545	this paper derives
0.1237740940	the physionet
0.1237620428	previously used
0.1237614370	the frobenius norm
0.1237488573	difficulty of training
0.1237481286	less understood
0.1237314209	to synthesize
0.1237246435	an auxiliary task
0.1237224867	\ leq m
0.1237015980	the presence of
0.1236852482	likely to
0.1236658326	convergence bounds for
0.1236655244	problems with multiple
0.1236493156	required to
0.1236481834	on cifar10
0.1236479215	blessing of
0.1236387564	theoretically show
0.1236374941	update rules for
0.1236349980	converges linearly to
0.1236267375	based on simple
0.1236190746	located in
0.1235860309	rules from
0.1235635662	on 6
0.1235369303	the apache
0.1235354718	geometric structure of
0.1235080953	a deep learning approach to
0.1235077762	halfspaces with
0.1235064760	a class of
0.1235000016	formula for
0.1234917878	a randomized
0.1234861474	from raw
0.1234821169	utilization of
0.1234804617	scarcity of
0.1234706633	smaller set of
0.1234627351	aided by
0.1234609550	to execute
0.1234589556	many successes
0.1234518365	\ x
0.1234331867	perform poorly on
0.1234305798	^ r
0.1234302576	all classifiers
0.1234169272	\ poly
0.1234111620	more robust and accurate
0.1234064652	able to distinguish
0.1234029198	collaborative filtering with
0.1234010514	experiments to illustrate
0.1233897085	structural assumptions on
0.1233710058	calculation of
0.1233658221	consistent estimates of
0.1233606388	in high stakes
0.1233530315	trained on small
0.1233460731	$ 5
0.1233390053	the bayesian information criterion
0.1233144917	the model parameters
0.1233074622	automatically adapt to
0.1233009749	noisy version of
0.1233008849	discretizations of
0.1232969421	a large scale empirical
0.1232906432	rate of
0.1232859111	derive bounds on
0.1232848521	accessible through
0.1232841644	spectral decomposition of
0.1232744148	integrated with
0.1232716851	datasets to compare
0.1232692965	the help of
0.1232673153	limited to
0.1232643514	some theoretical
0.1232627179	correlated with
0.1232557467	space models
0.1232526312	riemannian geometry of
0.1232460363	method for unsupervised
0.1232432904	several shortcomings
0.1232286943	approximation scheme for
0.1232255042	a deeper
0.1232163872	amount of labeled data
0.1232037473	framework to train
0.1232006843	results on simulated
0.1231926625	better performances
0.1231891581	a highly scalable
0.1231840130	often involve
0.1231772341	semi supervised learning in
0.1231663799	pseudoinverse of
0.1231637836	written in
0.1231376625	an analytical
0.1231186522	the ica
0.1231110460	each channel
0.1230979995	automatic identification of
0.1230874037	candidate models
0.1230763341	novel deep learning based
0.1230706439	second step
0.1230691961	expressive power of
0.1230628591	promising results on
0.1230571758	experiments to evaluate
0.1230509196	weighted sum of
0.1230500559	more important than
0.1230454618	estimates of
0.1230299363	at home
0.1230247599	outperformance of
0.1230109906	set containing
0.1230048263	towards efficient
0.1230019935	by viewing
0.1229987229	crucial to
0.1229935152	a closed loop
0.1229833977	exposure to
0.1229750592	wide variety of problems
0.1229569968	the degree corrected
0.1229426616	\ frac | \ mathcal
0.1229384558	these problems
0.1229327975	the leader
0.1229280822	$ _
0.1229183022	framework to derive
0.1229114153	in semi supervised learning
0.1229008414	oracle inequality for
0.1228920482	a recently developed
0.1228579824	necessary and sufficient condition
0.1228558642	order to ensure
0.1228554461	l +
0.1228518818	the pareto frontier
0.1228245652	the io
0.1228212052	the 2015
0.1228138409	the posterior distribution
0.1228000227	selection of
0.1227889320	provide new insights into
0.1227876639	performance gap between
0.1227865325	the byzantine
0.1227811133	the misclassification error
0.1227589344	almost zero
0.1227521083	hold even
0.1227482457	representations for
0.1227463899	data and real world data
0.1227287082	of independent interest
0.1227277723	probabilistic programs with
0.1227228742	trained with gradient
0.1227214959	acquired at
0.1227161613	low dimensionality of
0.1227037947	an already trained
0.1227011275	this upper bound
0.1226765007	sensitivity to
0.1226691746	methods for anomaly
0.1226674761	characterized as
0.1226611981	the whole
0.1226560241	the hilbert schmidt independence
0.1226451221	these algorithms
0.1226445595	various aspects
0.1226424637	a new class of
0.1226393578	$ b
0.1226345968	hosted on
0.1226330187	the target function
0.1226165787	the raw waveform
0.1226063156	scheme based on
0.1226033696	a critical point
0.1225700550	formulation of
0.1225696219	tractable models
0.1225665023	a self attention
0.1225659192	evaluated by
0.1225566119	adoption of
0.1225563488	more closely
0.1225543899	a novel meta learning
0.1225520614	the hilbert schmidt
0.1225453896	limited number of training
0.1225409323	a crucial task
0.1225396970	an e commerce
0.1225339736	to align
0.1225225753	training deep neural networks with
0.1225106523	abilities of
0.1225105419	for least squares regression
0.1225051521	originated in
0.1224807932	least squares value
0.1224699750	learning aims to learn
0.1224540713	network during training
0.1224519104	the se
0.1224420641	model x
0.1224328003	a limited set of
0.1224049503	to stabilize
0.1223822325	the excess risk
0.1223725763	proceedings of
0.1223662497	the target language
0.1223625714	sufficiently well
0.1223507110	more efficient than
0.1223232770	a major issue
0.1223178839	in contrast to previous
0.1223110298	at https
0.1222995333	statistical guarantees for
0.1222955362	experiments to compare
0.1222895041	the main reasons
0.1222893182	a new paradigm
0.1222793868	the first time
0.1222647362	a single modality
0.1222572012	by inspecting
0.1222394297	global minimizer of
0.1222362762	proportionally to
0.1222321013	ml system
0.1222152291	a refinement
0.1222041447	assumptions made in
0.1222021067	still holds
0.1221978102	a significant portion of
0.1221953804	a specific
0.1221941177	modification of
0.1221918883	solved efficiently using
0.1221901442	used to initialize
0.1221712455	alternative to
0.1221477625	played by
0.1221376015	networks with
0.1221335655	$ 50
0.1221266879	the indian
0.1221214138	substantial amount of
0.1221207351	comparisons among
0.1221099596	an embedding
0.1221015188	emerges as
0.1221008564	consists of three
0.1220915092	tightness of
0.1220699934	to synthesise
0.1220632434	out of distribution generalization
0.1220235082	suggestions for
0.1220184439	both labeled and unlabeled data
0.1219892192	the nystrom method
0.1219413929	\ mathbf u
0.1219409494	n 2
0.1219309919	by treating
0.1219304396	types of noise
0.1218980094	enhanced by
0.1218978064	three parameter
0.1218944802	large class of
0.1218836751	synthetic and benchmark
0.1218627440	each learner
0.1218574793	different locations
0.1218443160	speedup compared to
0.1218438592	beneficial for
0.1218391340	first order information
0.1218366037	an unbiased estimate
0.1218286437	together with
0.1218283329	few works
0.1218097352	empirical estimates of
0.1218038779	a variety
0.1217624888	private algorithms for
0.1217568909	a greedy
0.1217533909	machine learning to predict
0.1217500894	the weights in
0.1217403812	not known in advance
0.1217319092	method to infer
0.1217266049	the cold start
0.1217222225	online a b
0.1217136815	a single model
0.1217082025	on large data sets
0.1216936917	spectral algorithm for
0.1216865364	given graph
0.1216816796	arbitrarily many
0.1216715308	a polynomial dependence
0.1216665731	n t
0.1216636383	work examines
0.1216592050	multi task learning in
0.1216568324	algorithms such as
0.1216476004	end to end training of
0.1216453031	particularly effective
0.1216375306	number of evaluations
0.1216287980	agent needs to
0.1215982786	possibility of
0.1215926466	waiting for
0.1215866268	model parameters using
0.1215815651	a broad family of
0.1215812754	\ beta \ |
0.1215537045	each source
0.1215478995	the tangent space
0.1215358710	sides of
0.1215336273	fed with
0.1215285931	research on
0.1215013105	experiments on several datasets
0.1214819900	a fuzzy
0.1214642169	a diverse range
0.1214626015	the gold standard
0.1214586650	each block
0.1214571647	umbrella of
0.1214450467	areas such as
0.1214319739	model to perform
0.1214250858	= b
0.1214238907	general framework for
0.1214235319	each patient
0.1214193038	placed on
0.1214154065	technique based on
0.1214115487	i = 1 ^ m
0.1213962070	the physical world
0.1213690506	more expensive than
0.1213525126	a network based
0.1213512116	into groups
0.1213255417	simpler models
0.1213165471	to improve accuracy
0.1213094265	problem in computer vision
0.1212859704	real world data show
0.1212737587	reduction in
0.1212696072	a wide spectrum
0.1212559481	few minutes
0.1212449550	metrics such as
0.1212390059	set of results
0.1212261401	the hessian matrix
0.1212114952	asked to
0.1212094003	improved by
0.1212082943	the global minimizer
0.1212082098	developed by
0.1211979317	t distributed
0.1211791500	analysis of stochastic gradient
0.1211437942	a simple extension
0.1211172864	near future
0.1211107996	the proposed architecture
0.1210981356	do not account for
0.1210957190	deep neural networks for
0.1210945658	the resulting algorithm
0.1210894994	groups of
0.1210725271	two layer network
0.1210599571	not immediately
0.1210546855	many real life
0.1210426595	great deal of
0.1210321291	mini imagenet and
0.1210317824	a multilevel
0.1210291625	game between two
0.1210183830	leveraged to
0.1210036032	set of unlabeled
0.1209990417	the meta learner
0.1209862460	feature selection for
0.1209750276	two separate
0.1209691867	a real dataset
0.1209651462	$ \ mathcal d
0.1209566234	generalize to
0.1209469345	results hold for
0.1209400020	pseudo labels for
0.1209329923	numerical approximation of
0.1209175414	adversarial attack on
0.1209141249	achieve nearly
0.1209118878	retrieval using
0.1208917332	\ mathbb p
0.1208916957	the laplace
0.1208913815	by integrating
0.1208847247	suitable for large
0.1208691758	this drawback
0.1208554476	framework for structured
0.1208389544	similarity between two
0.1208199047	$ \ bm
0.1208191302	a good choice
0.1208083640	order to extract
0.1208049958	instead of
0.1207964992	method to automatically
0.1207755840	used to
0.1207437413	family of loss
0.1207230565	a python package for
0.1207197474	on large scale data sets
0.1207089685	implemented as
0.1207015980	a number of
0.1206896178	detection method based on
0.1206881579	method to quantify
0.1206678691	the response variable
0.1206658934	recently become
0.1206619631	by interleaving
0.1206415350	this context
0.1206050663	made great
0.1205730740	a suitable
0.1205561604	effective at
0.1205475340	a person's
0.1205232790	theory of optimal
0.1204720710	large body of work
0.1204625988	three step
0.1204580641	number of outliers
0.1204366977	performed well
0.1204286017	number of trainable
0.1204260804	propose to leverage
0.1204159668	a large family of
0.1203753152	object models
0.1203745922	approach to develop
0.1203604724	and real world datasets
0.1203562933	parameters through
0.1203523119	different weights
0.1203518824	combined using
0.1203362443	experiments to validate
0.1203278444	current understanding of
0.1203206652	difficulty of
0.1203188561	possibly different
0.1203007077	less studied
0.1202746752	$ ^ 3
0.1202699744	cues from
0.1202671172	accumulation of
0.1202628448	an action
0.1202528503	synthetic example
0.1202429477	contrasts with
0.1202428024	first contribution
0.1202215366	a significant improvement
0.1202114952	sought to
0.1202080838	multiple sources of
0.1202074780	performance in terms of accuracy
0.1202015930	evolves over
0.1201922693	comparison with
0.1201857893	stochastic gradient method for
0.1201834384	local changes
0.1201548577	deal with high
0.1201540770	methods to estimate
0.1201516824	contaminated with
0.1201509635	powerful paradigm for
0.1201476629	more convenient
0.1201379674	the pc algorithm
0.1201369907	work well in practice
0.1201247599	confidentiality of
0.1200996761	$ \ text
0.1200913099	a pytorch
0.1200910957	few examples
0.1200881735	the input image
0.1200860835	to obfuscate
0.1200592104	system design
0.1200586134	f =
0.1200383585	level sets of
0.1200373465	selection using
0.1200337271	code available at
0.1200225734	squeeze and
0.1199951845	illustration of
0.1199929715	stochastic gradient descent in
0.1199886292	modulus of
0.1199773600	an input
0.1199768090	by inserting
0.1199729561	theoretical aspects of
0.1199722153	the 2016
0.1199525208	performance in comparison
0.1199361756	the second step
0.1199084267	to represent
0.1198966691	an intervention
0.1198913504	known to suffer
0.1198862186	representations from
0.1198858434	a comparison
0.1198840901	powerful tool for
0.1198658180	an example
0.1198568412	convex relaxations of
0.1198546056	square root of
0.1198443120	the original training data
0.1198441709	the covariance matrix
0.1198367115	each trial
0.1198354180	the mondrian
0.1198332161	a collaborative
0.1198272612	convergence results for
0.1198257149	strictly better
0.1198153204	theoretical investigation of
0.1198084523	cifar 100 and
0.1197877212	to normalize
0.1197709273	compared to existing state of
0.1197708126	comparison of
0.1197557178	the attacker
0.1197527454	both real and synthetic data
0.1197508094	captured from
0.1197457572	obtained at
0.1197401791	spatial structure of
0.1197352674	thorough empirical
0.1197337002	a recursive
0.1197332909	an admm
0.1197246229	for large data sets
0.1197092492	few years
0.1197076864	a mixture model
0.1196984147	proofs of
0.1196854015	weak assumptions on
0.1196731245	based on kernel
0.1196626745	increasingly available
0.1196614311	an auxiliary
0.1196475227	a network of agents
0.1196311936	unbiased estimators for
0.1196267969	to deal with
0.1196252791	significantly improves over
0.1196216257	an end to end framework
0.1196164351	prevalent in
0.1196073934	mild conditions on
0.1195997864	regret bound of
0.1195878015	canonical correlation analysis for
0.1195841839	both synthetic and real
0.1195700550	type of
0.1195641430	the true solution
0.1195226132	byproduct of
0.1195092262	semi supervised learning for
0.1195039134	the pricing
0.1195038034	system using
0.1194795208	_2 \
0.1194750867	newton method for
0.1194724603	more accurately than
0.1194678877	not trivial
0.1194625121	of stochastic differential equations
0.1194506837	fast algorithms for
0.1194486361	based on real world
0.1194400318	a crucial role in
0.1194338625	does not involve
0.1194284713	developing new
0.1194233520	to solve large scale
0.1194225931	linearly with
0.1194216974	time series model
0.1194204720	proposed approach compared to
0.1194143357	optimized via
0.1194025128	these drawbacks
0.1193995412	parametrization of
0.1193798773	performs much better
0.1193710058	expressed in
0.1193624498	adverse effects of
0.1193557497	the minority class
0.1193523545	for semi supervised classification
0.1193513815	an inherent
0.1193481234	$ \ theta ^ \ star
0.1193440889	proven successful in
0.1193405034	deployed at
0.1193401797	\ gg n
0.1193395688	defined through
0.1193350236	the obtained results
0.1193277788	model to produce
0.1193245882	an experimental comparison
0.1193178312	variability in
0.1193141820	probability 1
0.1193068534	discussions on
0.1192822201	parametric family of
0.1192649875	an adequate
0.1192482626	methods for predicting
0.1192474733	bag of
0.1192408014	in advance
0.1192314780	considered here
0.1192305221	not applicable
0.1192277759	feature maps from
0.1191860739	an iteratively
0.1191849901	bound for
0.1191838736	to quantify uncertainty
0.1191837028	any pair of
0.1191555783	values of
0.1191431703	a proximity
0.1191268090	by letting
0.1190900174	eigenvectors of
0.1190725452	speed up over
0.1190595351	based on limited
0.1190390093	distributed representations of
0.1190372008	the siamese
0.1190333417	an r
0.1190244348	range of challenging
0.1190179486	algorithm to achieve
0.1190161343	a vital role in
0.1189989963	an active
0.1189942586	a paradigm shift
0.1189903470	a sequence of
0.1189868328	an epidemic
0.1189794064	$ 100
0.1189762150	a failure
0.1189690556	significant progress in
0.1189673710	numerical simulations show
0.1189660991	performance improvement over
0.1189611003	a fixed budget
0.1189518564	fast rates for
0.1189481516	in contrast to previous works
0.1189472598	form expression for
0.1189320219	guaranteed to converge to
0.1189224284	so well
0.1189117994	performance than existing
0.1189053171	means + +
0.1188934042	helpful in
0.1188927969	$ b =
0.1188336836	does not affect
0.1188328726	$ n ^ o
0.1188288366	maximum number of
0.1188287855	this paper shows
0.1188175897	hardness results for
0.1188036217	based models
0.1187975266	$ m ^ *
0.1187960058	discussion of
0.1187690256	next state
0.1187572038	constraints on
0.1187530957	a stand alone
0.1187527596	based on variational
0.1187350827	new tasks
0.1186743413	over 90
0.1186742863	does not suffer from
0.1186675406	supervised learning with
0.1186374711	by doing so
0.1186296284	$ fold cross
0.1186158169	measured in terms
0.1185973851	a range of
0.1185772938	not satisfied
0.1185411502	the test set
0.1185229214	for multi agent reinforcement learning
0.1184891710	scheme for learning
0.1184821169	definitions of
0.1184712331	each column
0.1184701150	do not generalize well
0.1184691500	choices of
0.1184610301	used to calculate
0.1184574544	basics of
0.1184419165	an investigation
0.1184384351	gradient method with
0.1184285264	based on iterative
0.1184273005	technique to learn
0.1184149593	to imitate
0.1184138465	works mainly
0.1184079493	one day
0.1183949520	new products
0.1183933308	better captures
0.1183918243	number of potential
0.1183813960	and sequential monte carlo
0.1183474142	by placing
0.1183233170	less memory
0.1183212396	very small number
0.1183192845	the final output
0.1183183889	stochastic variational inference for
0.1183110153	variability across
0.1182869806	an accompanying
0.1182847746	first theoretical analysis
0.1182785747	ultimate goal of
0.1182755387	algorithm to automatically
0.1182553525	based on classical
0.1182467011	bandit problem with
0.1182444888	series models
0.1182023614	formalism for
0.1182008991	strategy for
0.1181935590	propose to train
0.1181917828	first moment
0.1181831686	complex 3d
0.1181828621	these two issues
0.1181567977	a geometric rate
0.1181532358	less attention
0.1181505052	the huber loss
0.1181446860	extensions of
0.1181420570	no single
0.1181382968	the main challenge
0.1181261676	to pre train
0.1181210068	the euclidean
0.1181171824	a given
0.1181077136	more diverse
0.1181021881	equivalence class of
0.1180922080	an experiment
0.1180827419	to detect anomalous
0.1180818037	an expectation
0.1180746977	a critical step
0.1180718082	allowing for
0.1180716624	divided by
0.1180640680	these findings
0.1180536707	learn from
0.1180477114	\ rightarrow \
0.1180464336	feature learning for
0.1180397610	new hybrid
0.1180389253	a contraction
0.1180205008	trends in
0.1180177026	out of sample error
0.1180050105	areas like
0.1180034920	number of tasks
0.1180012434	several numerical experiments
0.1179987255	the regression function
0.1179872149	svm models
0.1179702588	method for high dimensional
0.1179663722	essential to
0.1179615565	systems rely on
0.1179596645	results obtained on
0.1179491968	each expert
0.1179437582	sample from
0.1179304691	class of estimators
0.1179118957	holds if
0.1179115326	with high accuracy
0.1179030590	generalize beyond
0.1178949686	the design matrix
0.1178766545	the replica method
0.1178678083	similar in spirit to
0.1178611698	adaptations of
0.1178499455	common mean
0.1178484420	and rapidly
0.1178444090	the neural network
0.1178354887	to convert
0.1178309152	approach to infer
0.1178159390	and real world experiments
0.1178145912	a popular choice
0.1178111853	to incorporate
0.1177927471	class of methods
0.1177884825	different sources
0.1177869330	the inverse hessian
0.1177818236	to prevent
0.1177720560	tools such as
0.1177514887	embedded in
0.1177458140	a drop in replacement
0.1177450010	different aspects
0.1177366478	the adjacency matrix
0.1177283830	ubiquitous in
0.1177225848	the target variable
0.1177183436	algorithm for non convex
0.1177056731	lstm or
0.1177052000	gradient based optimization of
0.1177039912	of iterations
0.1176821222	accounted for by
0.1176794742	the mit
0.1176740072	\ mathbb c ^ n
0.1176720504	the research community
0.1176706286	boundary between
0.1176610384	new challenges
0.1176592919	costs associated
0.1176585986	discover new
0.1176502542	shift between
0.1176329832	transfer learning via
0.1176285699	flexible enough to
0.1176224993	a principled
0.1176015201	a successive
0.1175907061	a tremendous amount
0.1175619103	representation learning using
0.1175593342	algorithm to obtain
0.1175416432	recover from
0.1175292463	uncertainty quantification in
0.1175211602	generate samples from
0.1175209916	information needs
0.1175149542	covariance models
0.1175080429	bayesian formulation of
0.1175075239	a study
0.1175071045	taken by
0.1175064760	a family of
0.1174867894	less data
0.1174820356	yields better
0.1174755638	level set of
0.1174754631	evolution of
0.1174648524	essential component of
0.1174430164	dynamic nature of
0.1174352855	a variational lower bound
0.1174001763	wide class of
0.1173943773	using k means
0.1173913260	obtained results show
0.1173789166	particularly useful
0.1173502505	develop two
0.1173486076	prior distributions on
0.1173376015	learning with
0.1173372112	relatively less
0.1172867041	$ l ^ p
0.1172784020	stuck in
0.1172755417	recorded from
0.1172623242	carried by
0.1172507823	thus limiting
0.1172482192	| \ cdot
0.1172446250	some mild
0.1172284028	these difficulties
0.1172242025	a self supervised
0.1172235953	consistency across
0.1172164789	a tiny
0.1172003102	expected to
0.1171977772	using autoencoders
0.1171959771	a good candidate
0.1171877776	comprehensive evaluation of
0.1171802442	the laplace approximation
0.1171749207	focused on learning
0.1171589274	approach for modeling
0.1171567159	a joint
0.1171501072	based on tensor
0.1171464668	these biases
0.1171399843	an ordinary differential
0.1171335753	n \ to \ infty
0.1171238285	a topology
0.1171217035	an expert
0.1171211040	$ j
0.1171076178	to assist
0.1170980119	over parameterized deep
0.1170975931	interpretations of
0.1170792387	the black box
0.1170758291	noise added to
0.1170729176	different norms
0.1170697989	uncertainty over
0.1170696922	reliable models
0.1170526644	new product
0.1170494713	improvement compared to
0.1170455193	conditions on
0.1170425071	the need for
0.1170252983	differences in
0.1170248001	the skip gram
0.1170236045	proposed to generate
0.1170209916	gain more
0.1170209440	a fundamental challenge
0.1170135436	$ 1 \ leq p
0.1170041114	data sets with
0.1170001449	perform experiments on
0.1170001036	a data driven model
0.1169997213	the agent
0.1169919769	assumption on
0.1169824229	different layers
0.1169789517	per parameter
0.1169753754	a finite number of
0.1169632959	interaction among
0.1169431571	the lower bound
0.1169333637	landscape of neural
0.1169331148	competing with
0.1169258550	recent interest
0.1169175095	remarkable success in
0.1169126244	$ 0,1
0.1169050029	a single step
0.1168922074	developed for
0.1168883967	accurate identification of
0.1168873077	the mnist dataset
0.1168835974	based on noisy
0.1168821569	model selection for
0.1168731129	knowledge from
0.1168620444	active learning with
0.1168453022	more accurate estimation
0.1168429303	learning to classify
0.1168388775	a latent space
0.1168211334	a linear time
0.1168186862	optimal algorithms for
0.1168175558	started to
0.1168012671	rank plus
0.1167968496	to fulfill
0.1167911607	100 times
0.1167886177	global properties of
0.1167695388	a crucial role
0.1167526662	suitable for real time
0.1167404109	equation models
0.1167317782	focus here
0.1167213970	for on device
0.1167212372	algorithms for reinforcement
0.1167199568	approximation of
0.1166852090	the incomplete
0.1166783830	similarly to
0.1166740149	recognized by
0.1166556821	questions related to
0.1166481916	algorithm to construct
0.1166367190	need to understand
0.1166223493	different ways
0.1166186163	the resulting classifier
0.1166100582	each coordinate
0.1166048611	the network output
0.1166033431	the resulting model
0.1165848134	the partial information
0.1165832939	applied to learn
0.1165770436	failed to
0.1165602000	variations in
0.1165459811	number of rules
0.1165341267	potential application of
0.1165335161	a zero sum game
0.1165284111	main advantage of
0.1165268970	a feed forward
0.1165193809	and real world data
0.1165122794	c bound
0.1165064760	a subset of
0.1164911103	trained by
0.1164893630	efficient algorithm based on
0.1164877374	computer vision models
0.1164650444	on simulated data
0.1164504620	five different
0.1164390223	batches of
0.1164376826	poorly due
0.1164275713	a key
0.1164264900	forest models
0.1164244966	combined into
0.1164167827	composed by
0.1164141769	part of
0.1163988451	approach for joint
0.1163908119	information to improve
0.1163894994	effects of
0.1163843089	influence on
0.1163800430	much simpler than
0.1163700187	theoretic approach to
0.1163580430	y ^
0.1163528371	both theoretically and empirically
0.1163481812	the elliptical
0.1163433354	convergence proof of
0.1163368202	asymptotic behavior of
0.1163315909	= p
0.1163279126	the most informative
0.1163214972	an outer
0.1163060770	to translate
0.1162820802	achieved by learning
0.1162691936	collected over
0.1162431628	a multi agent
0.1162425216	contrast to prior
0.1162367217	approximations of
0.1162289135	an analogue
0.1162089685	scales as
0.1162022486	r =
0.1161890569	a common framework
0.1161750657	a partially observed
0.1161652796	non parametric estimation
0.1161651806	learning models to predict
0.1161185150	to generate synthetic
0.1161153321	the art deep neural networks
0.1161098738	need to
0.1161009240	the current policy
0.1160835629	partial least
0.1160832019	a contrastive
0.1160812455	benefits of
0.1160638451	few iterations
0.1160595939	learning method based on
0.1160529474	tools in machine
0.1160492857	perspective on
0.1160309428	arbitrary number of
0.1160255840	used for
0.1160168999	whole family
0.1160124618	better approximation
0.1159989999	a fundamental
0.1159836513	the original space
0.1159663316	strategies for
0.1159638830	decomposition of
0.1159574494	blocks of
0.1159569798	translation using
0.1159515908	codes from
0.1159418406	certain conditions
0.1159139973	all layers
0.1159122506	implemented through
0.1159092418	correlations across
0.1158929258	known variance
0.1158576481	two part
0.1158513815	an entire
0.1158441500	ensembles of
0.1158271654	and dynamically
0.1158216514	formed from
0.1158207021	significant reduction of
0.1158199334	to maximise
0.1158198667	some interesting
0.1158122995	deployment of
0.1158061036	arises due
0.1158061019	based on graph
0.1157794342	a small amount of
0.1157673846	a great deal
0.1157605839	the parameter space
0.1157595311	broad spectrum of
0.1157530070	the art semi supervised
0.1157514562	avenue for
0.1157431738	the euclidean distance
0.1157289882	a supervised
0.1157146743	outperforms existing methods in
0.1157089567	practice because
0.1157061534	generalization performance of
0.1156887768	advances in machine
0.1156813601	framework through
0.1156616078	both accuracy and
0.1156492020	obtained from multiple
0.1156487831	other users
0.1156313198	more quickly
0.1156210174	remarkable performance on
0.1156199568	knowledge of
0.1156167519	capability of
0.1156092067	the target task
0.1156036200	no assumptions
0.1156000325	an increasing number of
0.1155845697	algorithm uses
0.1155804037	recent progress on
0.1155703040	detect whether
0.1155622130	a first step towards
0.1155320680	classifiers based on
0.1155232144	the original gan
0.1155090901	substantial reduction in
0.1155043498	generally applicable to
0.1154764482	a key element
0.1154733563	experiment results on
0.1154446181	much wider
0.1154410950	specific types of
0.1154259117	an essential
0.1154163458	\ tilde o \ left
0.1154066023	results obtained from
0.1154058715	algorithm to train
0.1154046134	lead time
0.1154031487	explanation for
0.1153981413	learning for large scale
0.1153939958	at different levels
0.1153829363	non linear feature
0.1153777186	model for clustering
0.1153695764	number of covariates
0.1153692703	rates of
0.1153414570	achieves nearly
0.1153177190	the learned representations
0.1153031826	j =
0.1152963905	usefulness of
0.1152874180	updated by
0.1152838777	the teacher student
0.1152836423	a fully connected
0.1152697232	algorithm to efficiently
0.1152583913	large number of features
0.1152547208	only slightly
0.1152423915	theory behind
0.1152415631	all at once
0.1152372870	a simple yet effective
0.1152356730	number of groups
0.1152185679	these approaches
0.1151925776	the original model
0.1151834560	learn to perform
0.1151817824	a quick
0.1151637244	performance with respect
0.1151627111	efficient than
0.1151456056	more meaningful
0.1151453841	neural networks trained on
0.1151395409	method to efficiently
0.1151347156	framework to evaluate
0.1151220678	algorithm to handle
0.1151177802	substantially better than
0.1151175627	efficacy of
0.1151063111	quantification of
0.1151055671	a smaller number
0.1151049170	a saddle point
0.1150804849	a smartphone
0.1150471887	formal analysis of
0.1150241120	algorithm converges to
0.1149900762	non parametric approach
0.1149815485	finite set of
0.1149480893	+ |
0.1149469119	a dnn's
0.1149383677	than or equal to
0.1149354376	a cost sensitive
0.1149327657	learning graphical models
0.1149170132	deployed in
0.1148926486	the oc
0.1148909213	convergence rates under
0.1148861509	neural networks for
0.1148849437	practical usefulness of
0.1148796493	neural network model for
0.1148346389	the art black box
0.1148327765	a step toward
0.1148141003	based on generative adversarial
0.1148115782	learned through
0.1148114828	based on empirical
0.1148090008	empirical mean
0.1148085117	theoretical properties of
0.1148045665	each element
0.1147829903	important implications for
0.1147528475	four benchmark datasets
0.1147445857	gradient descent applied to
0.1147442315	a bottom up
0.1147408020	time frame
0.1147267431	as little as
0.1147265074	problem of approximating
0.1147141230	and hyper parameter optimization
0.1147132327	based on individual
0.1147126534	two step algorithm
0.1146997637	an early
0.1146883349	the main challenges
0.1146824059	number of constraints
0.1146772898	many variables
0.1146762719	achieved good
0.1146653204	approximation schemes for
0.1146560770	to manage
0.1146551659	to fill
0.1146498985	new ways
0.1146349451	based on randomized
0.1146294947	based on spectral
0.1146147434	compact representation of
0.1146039821	reduction method for
0.1146019562	this reason
0.1146012810	familiar with
0.1145973851	the efficacy of
0.1145908592	the heavy ball
0.1145740175	approach uses
0.1145529162	boundedness of
0.1145516631	better performances than
0.1145396475	data coming from
0.1145349451	based on partial
0.1145110283	1 +
0.1145106576	$ arm
0.1145082071	to sell
0.1144967044	across layers
0.1144789092	great promise for
0.1144728762	an object
0.1144713823	comments on
0.1144470163	$ 1 2
0.1144402839	the training loss
0.1144343374	scale to very
0.1144067725	between entities
0.1143917506	by removing
0.1143907304	completion time
0.1143723078	based on conditional
0.1143709191	series of
0.1143683012	samples generated by
0.1143634304	error estimates for
0.1143439955	\ sum_ i = 1
0.1143400314	model's ability to
0.1143307857	matters in
0.1143156117	attacks against deep
0.1143075836	problem as
0.1142994518	knowledge into
0.1142993413	built in
0.1142838481	modelled using
0.1142826376	the success of deep learning
0.1142818236	to maintain
0.1142256093	f ^
0.1142237044	measured in terms of
0.1142182105	decisions made
0.1142049945	a natural
0.1142035333	landscape of
0.1142032409	improvement on
0.1141906185	of machine learning algorithms
0.1141772808	to pay
0.1141768079	an acceleration
0.1141734721	a genetic
0.1141473397	one million
0.1141293171	the embedding space
0.1141151044	exhibit different
0.1141080932	favour of
0.1141065180	terms of sample complexity
0.1141042594	the number of observations
0.1140830558	probability of
0.1140813147	convex models
0.1140345306	a logarithmic number
0.1140341035	generalized to other
0.1140300196	by restricting
0.1140298903	a prespecified
0.1140074601	model with latent
0.1140041839	on several datasets
0.1140009695	the human brain
0.1139980726	for few shot learning
0.1139959244	understanding about
0.1139874398	a second order
0.1139733621	not suffice
0.1139702351	q 1
0.1139559573	too computationally
0.1139509943	in order to alleviate
0.1139507747	no prior knowledge
0.1139397355	extendable to
0.1139349246	a redundant
0.1139296595	hypothesis about
0.1139288058	a popular topic
0.1139157115	vision system
0.1139083132	the cramer
0.1138998278	the leading eigenvector
0.1138941691	for future research
0.1138931103	a lower bound
0.1138925457	asymptotic convergence of
0.1138699568	generalization of
0.1138606412	no known
0.1138577878	a real data analysis
0.1138527462	prediction under
0.1138492171	a mutual
0.1138198468	\ 0,1 \ ^
0.1138149434	up to logarithmic
0.1138040692	need to specify
0.1138027398	to eliminate
0.1137974497	also includes
0.1137806056	a single node
0.1137729253	approach to determine
0.1137692855	intuitive way
0.1137613067	better sample efficiency
0.1137544903	^ o
0.1137500790	the main technical
0.1137414983	effective way
0.1137369331	most existing approaches
0.1137293569	upper bound of
0.1137143278	the upper bound
0.1137101655	the em
0.1137015980	the case of
0.1137006402	a user's
0.1136944746	advancement in
0.1136791233	a power law
0.1136566506	very large scale
0.1136535039	these notions
0.1136437539	a smoothed
0.1136388930	broad applicability of
0.1136385961	regression via
0.1136213111	expansion of
0.1136207561	do not perform well
0.1136091193	any modification
0.1136082160	to fool
0.1136055783	detection of
0.1135890373	control system
0.1135680590	s +
0.1135598000	a catalog
0.1135534559	misclassified by
0.1135434412	@ 1
0.1135401356	40 \
0.1135253039	landscape of deep
0.1135225016	inherent to
0.1135210731	$ 6
0.1135029406	progressively more
0.1134934276	m \ ll
0.1134860453	assessed using
0.1134752365	recommendation with
0.1134708698	large set of
0.1134693957	the mse
0.1134692229	the second stage
0.1134676449	strive to
0.1134672780	an f1 score
0.1134631675	the art gnn
0.1134552988	number of training data
0.1134532745	in light of
0.1134288053	starts by
0.1134252665	the presence of outliers
0.1134235673	require only
0.1134182302	distilled from
0.1134083275	elements of
0.1134006308	the high dimensional data
0.1133924184	stability of
0.1133892595	all workers
0.1133878569	sufficient condition for
0.1133455102	asymptotic consistency of
0.1133264679	a linear program
0.1133239815	flow from
0.1133132454	the learned representation
0.1133049958	to make
0.1132994610	each feature
0.1132972685	operate in
0.1132913663	framework for supervised
0.1132902302	for large scale data
0.1132884830	for ope
0.1132769135	the stanford
0.1132735081	1 \ sqrt k
0.1132466208	most influential
0.1132456855	performs well on
0.1132381100	other baselines
0.1132182403	the agent's
0.1132156645	two hidden layers
0.1131910379	to learn meaningful
0.1131909119	1 \ sqrt
0.1131868958	based on solving
0.1131704852	average accuracy of
0.1131631198	the serial
0.1131613168	wish to estimate
0.1131502152	over parameterized neural
0.1131478573	an unlabeled target
0.1131429215	some potential
0.1131418491	created from
0.1131112052	learning representations of
0.1131062674	a one dimensional
0.1131062077	with hidden variables
0.1131057247	approach to model
0.1130946826	a starting point
0.1130925908	already known
0.1130664928	l ^
0.1130571586	this paper reviews
0.1130564245	multiple layers of
0.1130533346	networks for classification
0.1130405345	two innovations
0.1130395190	with regard to
0.1130341920	particularly important
0.1130287888	successfully used
0.1130210452	t \ log t
0.1130164969	the 1d
0.1130052876	a smooth approximation
0.1130027335	the corresponding
0.1129878970	k \ epsilon
0.1129837826	a 2d
0.1129823066	a specific task
0.1129631378	often unclear
0.1129563432	scale to high
0.1129413722	success in
0.1129294819	specific structure of
0.1129250227	uncertainty in
0.1129231806	too many
0.1129215482	value iteration algorithm
0.1128925526	small subset of
0.1128847760	achieves comparable or
0.1128812584	the theory behind
0.1128685224	the fiedler
0.1128601310	algorithm for classification
0.1128474033	without loss
0.1128445829	presentation of
0.1128361133	disease 2019
0.1128343310	uncertainty estimates than
0.1128126787	based on distance
0.1128063909	problem into
0.1128063599	crucial aspect of
0.1127960058	adapting to
0.1127906337	even greater
0.1127894002	a hot research
0.1127823639	to increase
0.1127818315	the wasserstein metric
0.1127576876	the signal to noise ratio
0.1127255972	classifiers from
0.1127070520	often too
0.1126727436	to prune
0.1126718755	an overview of
0.1126686705	at different locations
0.1126526352	successful at
0.1126494793	connectivity between
0.1126423253	by enforcing
0.1126367466	$ 3
0.1126356432	different types
0.1126336379	gradient based methods for
0.1126217560	the fourier domain
0.1126093905	any additional
0.1125979015	consistent way
0.1125898585	risk of
0.1125850727	the original dataset
0.1125783343	two parts
0.1125736857	widely used for
0.1125712905	means of
0.1125705812	a direct comparison
0.1125600461	experimental studies on
0.1125285931	applied on
0.1125207889	to generate realistic
0.1125136180	large volume of
0.1125115913	used to compute
0.1125064760	the field of
0.1125064760	the role of
0.1125032666	a decrease
0.1124898670	studied extensively in
0.1124852707	\ v
0.1124807848	the art model based
0.1124740456	target value
0.1124694718	$ \ sum_
0.1124656026	constraint on
0.1124568800	the action space
0.1124398811	union of
0.1124322490	approach to supervised
0.1124307919	more parameters than
0.1124301235	learning generative models
0.1124279255	the earth's
0.1124236172	a mean field
0.1124186361	neural networks against adversarial
0.1124130767	a source domain
0.1124035429	based method for
0.1123914625	order to provide
0.1123900361	some recent works
0.1123761876	a great deal of
0.1123480334	different classes
0.1123327411	^ * \ in
0.1123321823	users from
0.1123287256	the expected
0.1123284165	performed better than
0.1123175578	algorithm for sparse
0.1123141577	to restore
0.1123133705	solution to
0.1122853891	unbiased estimator of
0.1122825053	important aspects of
0.1122804912	defined in terms of
0.1122748643	major advantage of
0.1122735565	the model output
0.1122609844	regret with respect
0.1122408349	an important role in
0.1122378825	the problem dimension
0.1122364045	an important challenge
0.1122324856	improved performance on
0.1122319378	framework to estimate
0.1122305514	gaussian process regression for
0.1122294980	by virtue
0.1122250266	each training example
0.1121739957	seems to
0.1121707913	maximum likelihood estimation for
0.1121652371	an arbitrary number
0.1121296432	in contrast to
0.1121152045	an arbitrarily small
0.1121138609	to accommodate
0.1121088936	using multi
0.1121059645	to prioritize
0.1121045845	a constrained optimization
0.1121040706	quantiles of
0.1121011921	the art attacks
0.1120946912	function of
0.1120912061	terms of prediction accuracy
0.1120698677	unified framework for
0.1120636616	inequality for
0.1120610812	on benchmark data sets
0.1120580434	advances in artificial
0.1120576132	practical algorithms for
0.1120550991	while still achieving
0.1120430072	\ emph random
0.1120402593	the first
0.1120385000	two ways
0.1120203499	the most promising
0.1119888728	many real world data
0.1119819757	number of non zero
0.1119781506	an optimum
0.1119709860	a group of
0.1119668764	sets of data
0.1119663183	direction towards
0.1119601710	the sign
0.1119451706	an acceptable
0.1119443110	a hardware
0.1119408576	two consecutive
0.1119320193	prerequisite for
0.1119077921	recent work on
0.1119057923	for fitting
0.1119044351	a pointwise
0.1118663263	continuous relaxation of
0.1118507819	a certain threshold
0.1118447934	methods for estimation
0.1118442182	different network architectures
0.1118411777	the current state of
0.1118044606	failing to
0.1117890962	the proposed strategy
0.1117889920	novel contributions
0.1117809479	dependency structure of
0.1117782173	more natural
0.1117664603	| s
0.1117574655	thus reducing
0.1117532925	\ \ pm
0.1117524812	an underdetermined
0.1117511394	a linear transformation
0.1117385571	phenomena such as
0.1117296304	reasonable time
0.1117194973	more general case
0.1117163091	k ^
0.1117098692	the data matrix
0.1116992652	measure of
0.1116963468	joint analysis of
0.1116887881	for training deep neural
0.1116766672	an easy to use
0.1116736076	problem of supervised
0.1116666265	model for
0.1116665458	eight different
0.1116583488	\ to \
0.1116383947	to calculate
0.1116175669	guideline for
0.1115976780	up to two orders
0.1115921949	to incentivize
0.1115915556	range from
0.1115870973	regret minimization in
0.1115866707	datasets for training
0.1115820588	a probability distribution
0.1115746968	used to perform
0.1115461876	a myriad of
0.1115425021	new concepts
0.1115390749	become popular
0.1115226943	training neural networks with
0.1115206690	by human experts
0.1115064760	a collection of
0.1115022995	characteristic of
0.1115021793	named as
0.1114796269	an experimental study
0.1114730834	require less
0.1114670291	introduced into
0.1114620759	high dimensional data with
0.1114538869	while providing
0.1114382581	a finite state
0.1114310999	while still
0.1114281404	popularity due to
0.1114277026	does not take into account
0.1114239432	a repeated
0.1114210131	significance of
0.1114038307	a finite sample
0.1113978488	types of features
0.1113828806	such attacks
0.1113804892	based on observations
0.1113775810	by augmenting
0.1113710058	consideration of
0.1113490726	set of observations
0.1113439173	the empirical risk
0.1113427908	hoping to
0.1113363884	often fails
0.1113278208	distance between two
0.1113226086	$ k 1
0.1113124270	the spatio temporal
0.1113122509	an online setting
0.1113113190	a prototypical
0.1113087839	relating to
0.1113066739	small amount
0.1113049992	the low rank
0.1113043832	methods rely on
0.1112966820	does not seem to
0.1112960441	depends only
0.1112898847	often exhibit
0.1112863884	several hours
0.1112817530	gradient descent method for
0.1112810297	knowledge learned from
0.1112667174	order to exploit
0.1112626017	wants to
0.1112613739	or even
0.1112581429	estimator based on
0.1112413651	an off policy
0.1112337689	these ideas
0.1112247049	fundamental problems in
0.1112170402	promising performance on
0.1112008581	graph neural networks with
0.1111963232	optimal estimation of
0.1111768168	propose and compare
0.1111580534	properties of neural networks
0.1111519026	get stuck in
0.1111505670	less than one
0.1111429340	consist in
0.1111268768	identify three
0.1111248860	statistical approach to
0.1111098981	these attacks
0.1110894958	solved through
0.1110816036	flexibility allows
0.1110815651	an important class of
0.1110781704	made arbitrarily
0.1110608174	emerging as
0.1110504773	partial or
0.1110476119	several numerical examples
0.1110320406	corrects for
0.1110279721	random walks on
0.1110260372	provide bounds on
0.1110187003	problem of model selection
0.1110137111	the joint distribution
0.1110117100	learns to
0.1110095290	based on recent
0.1110095290	based on gaussian
0.1110026834	expected number of
0.1109891983	at most
0.1109770768	based on stochastic gradient
0.1109762685	$ 10
0.1109744362	a fundamental problem
0.1109557180	class of nonlinear
0.1109545294	experimental evaluations on
0.1109496987	efficient method for
0.1109446079	time efficiency
0.1109342921	1 dimensional
0.1109266937	the learner's
0.1109188830	based on random
0.1109158786	approach for
0.1109037280	typically leads to
0.1108973664	\ mathbf t
0.1108916263	specific choice of
0.1108685770	the sr
0.1108654503	correctness of
0.1108606996	algorithm to generate
0.1108584089	the log posterior
0.1108435467	qualitative analysis of
0.1108359961	for multi class
0.1108348365	different settings
0.1108307324	time point
0.1108302019	time prediction
0.1108260453	calculated using
0.1108177960	employed to
0.1108125292	a specially designed
0.1108111671	the proposed test
0.1108069876	$ n \ to \ infty
0.1107936591	the lipschitz constant
0.1107918180	an essential role
0.1107903621	on three real world datasets
0.1107895278	on attributed graphs
0.1107838481	absent from
0.1107832235	neural networks to predict
0.1107787021	two players
0.1107458623	set of inputs
0.1107391718	2018 challenge
0.1107381613	the victim
0.1107369726	achieves near
0.1107296554	prior knowledge of
0.1107015980	the effect of
0.1106784403	rich class of
0.1106743548	mathematical properties of
0.1106713250	way to combine
0.1106682715	a regularization term
0.1106536444	inclusion of
0.1106497056	contribution of
0.1106435333	history of
0.1106415522	suffice for
0.1106373722	stochastic gradient descent on
0.1106108145	study whether
0.1106024830	p \ leq
0.1105978470	compared to current
0.1105968147	a single unified
0.1105964743	critical to
0.1105864861	cifar 10 and
0.1105792912	+ n ^
0.1105681379	integration into
0.1105526774	new dataset
0.1105176238	explanations for
0.1105168670	seen before
0.1105147648	assessed on
0.1104941935	this deficiency
0.1104751273	method to perform
0.1104715928	mean field methods
0.1104571754	a diverse range of
0.1104556275	a sequential manner
0.1104524375	used to learn
0.1104300871	^ m \ times n
0.1104181554	implementations of
0.1104070328	the problem's
0.1104003432	a deep learning system
0.1103993854	the xor
0.1103835475	problem of
0.1103618618	quite effective
0.1103614820	interaction with
0.1103575060	deep neural networks against
0.1103528240	arises in
0.1103291893	used as
0.1103195750	more practical
0.1103195207	regularizers for
0.1103122672	generally not
0.1103106622	existing methods for
0.1103102031	variables via
0.1103078914	gradient descent with
0.1103052291	recommendation for
0.1103042278	a non convex optimization problem
0.1102912676	special case of
0.1102857305	algorithm for inference
0.1102785106	method to
0.1102771208	problem of high dimensional
0.1102711269	operates by
0.1102180684	confidence bounds on
0.1101979073	based on generative
0.1101857757	approach to modeling
0.1101791611	unified way
0.1101699332	a preprocessing
0.1101674346	small sub
0.1101645856	paradigm for learning
0.1101618448	bags of
0.1101459232	prior over
0.1101365925	regret guarantees for
0.1101355950	a reinforcement learning algorithm
0.1101128791	number of machine learning
0.1101110215	an extensive set of
0.1101095245	lead to better
0.1101021865	an extensive
0.1101003624	non euclidean data
0.1100923866	the gp
0.1100865742	proof of
0.1100858425	to enrich
0.1100843078	the learner
0.1100768251	works focus on
0.1100654033	learning with neural networks
0.1100600322	3d point
0.1100377667	this lower bound
0.1100105563	an accelerated
0.1100065820	prove bounds on
0.1099958567	bias in
0.1099954283	$ \ beta ^ *
0.1099760424	and black box attacks
0.1099674972	rounds of
0.1099655793	complicated by
0.1099493129	performance on real
0.1099406784	changes over time
0.1099391230	nash equilibrium in
0.1099358160	the remaining
0.1099296735	using privileged
0.1099006670	objects into
0.1098997056	usage of
0.1098980839	approximation using
0.1098773118	a simple framework
0.1098768641	to initialize
0.1098730292	curse of
0.1098702137	methods on synthetic
0.1098623653	same entity
0.1098573857	progress in
0.1098462850	evaluate whether
0.1098430484	workings of
0.1098423403	propose two new
0.1098328073	a loss function
0.1098146625	widely deployed in
0.1098140598	$ minimization
0.1098112262	without supervision
0.1098009675	to adapt
0.1097964874	robustness of
0.1097955390	internal representation of
0.1097889715	automatic selection of
0.1097781506	to pick
0.1097662524	conditional distribution of
0.1097662479	events of interest
0.1097574655	thus allowing
0.1097540506	an efficient graph
0.1097366081	multiple levels of
0.1097315554	articles from
0.1097265320	number of false
0.1097188177	distribution via
0.1097149965	method to build
0.1097102286	approximation power of
0.1097049945	a common
0.1097021382	best performing model
0.1096989126	analyzed by
0.1096831398	difference in
0.1096792108	a gradient flow
0.1096728488	generalization capacity of
0.1096725656	learning via
0.1096676291	error bound for
0.1096675762	works by
0.1096604112	problem in reinforcement
0.1096590331	the incremental
0.1096581387	with long short term memory
0.1096432486	choose between
0.1096383947	to embed
0.1096279416	well developed
0.1096187547	extensive evaluation on
0.1096133529	by fusing
0.1096102313	the symmetry
0.1095898986	\ subset \ mathbb r
0.1095789064	to train deep neural
0.1095773456	hold under
0.1095770436	faithful to
0.1095663722	capabilities of
0.1095497022	$ vi
0.1095453773	by providing
0.1095436278	$ \ left
0.1095414173	results comparable to
0.1095404569	comparison with state of
0.1095362342	mathematical analysis of
0.1095332708	based on quantum
0.1095284614	learning from data
0.1095258926	sake of
0.1095240927	the gradient descent method
0.1095233507	distribution changes
0.1095223422	an introduction to
0.1095191553	a_i \
0.1095154001	generalizes across
0.1095114373	a distance based
0.1095070328	propose to optimize
0.1095047548	shown promise in
0.1094926928	compare different
0.1094703999	\ tilde o \ big
0.1094588089	fairness in machine
0.1094522031	report on
0.1094431080	$ \ log
0.1094380232	strategy leads to
0.1094358603	little loss
0.1094334996	more challenging
0.1094292676	prove convergence of
0.1094280827	to elicit
0.1094175627	role in
0.1094042182	a weighted average
0.1094032192	a low computational cost
0.1093914558	concludes with
0.1093893417	full model
0.1093886527	to monitor
0.1093827586	comparing with
0.1093629501	more complex tasks
0.1093596094	complexity of deep neural
0.1093578186	$ optimal solution
0.1093576617	ability to efficiently
0.1093519363	value theory
0.1093421954	machine learning model to
0.1093221352	results on real
0.1093075642	the dilemma
0.1093071065	present two
0.1093042699	comprehensive survey on
0.1092950441	referred to
0.1092797458	time frames
0.1092744867	an unsupervised way
0.1092563273	priori knowledge of
0.1092500400	the pc
0.1092463678	extensive experiments on three real
0.1092436580	this paper demonstrates
0.1092415898	a thorough
0.1092185127	dimensionality of
0.1092096591	computational cost than
0.1092077161	method to derive
0.1092043003	a novel criterion
0.1091997986	to meet
0.1091921098	a random walk
0.1091831919	the hot
0.1091739649	cost of
0.1091713057	joint learning of
0.1091666116	unsupervised learning of
0.1091637532	a spatio temporal
0.1091581798	the de facto standard
0.1091457241	the true risk
0.1091414528	a non trivial task
0.1091088136	a feasible solution
0.1090979107	designed specifically for
0.1090866554	$ w ^
0.1090836265	up to 10
0.1090799699	method uses
0.1090714874	classes of
0.1090670374	sharp contrast to
0.1090667743	p_ \
0.1090571873	method for sparse
0.1090538851	method for clustering
0.1090532564	a faster rate
0.1090515151	these measures
0.1090421111	able to reconstruct
0.1090373136	the states of
0.1090349239	task of detecting
0.1090323700	to intervene
0.1090301725	terms of regret
0.1090255477	method performs well
0.1090200744	at inference time
0.1090025092	to minimise
0.1090019116	c ^
0.1089827906	a sharp
0.1089757970	a large amount of
0.1089300872	various kinds
0.1089188542	an effective tool
0.1089014299	experimental evaluation of
0.1088988232	the proposed procedure
0.1088906259	the native
0.1088805614	improvements in
0.1088781302	evaluation on real
0.1088693588	a tree structure
0.1088509520	both simulated and real data
0.1088461640	based on user
0.1088384841	the feasible set
0.1088373643	favorably to
0.1088278284	perform well on
0.1088093024	policy optimization with
0.1088034597	under roc curve
0.1087917078	non hierarchical
0.1087708131	an important property
0.1087705688	a poisson process
0.1087625294	new probabilistic
0.1087334548	practical application of
0.1087247056	variation of
0.1087212339	requiring access to
0.1087150951	suffice to
0.1087120266	excellent performance on
0.1087108981	a fixed size
0.1087108542	two or more
0.1087018553	the addition of
0.1087015980	the superiority of
0.1087015980	the task of
0.1086995879	from below
0.1086945579	practical side
0.1086900667	best known complexity
0.1086889717	a considerable amount
0.1086878706	approaches to solve
0.1086848745	re use
0.1086838927	a weaker
0.1086744253	occur in
0.1086550667	approximate bayesian inference in
0.1086455681	freely available at
0.1086405533	system control
0.1086382495	the desired
0.1086365141	on large scale data
0.1086303077	a popular approach
0.1086268553	the heart of
0.1086106053	problems arising from
0.1086019773	a lagrangian
0.1085940134	the input signal
0.1085912164	p 2
0.1085869177	a few labeled
0.1085852228	extended to other
0.1085838392	similarity models
0.1085751579	approach allows
0.1085703254	methods on standard
0.1085605984	both simulated and real datasets
0.1085524833	explanation of
0.1085503324	results on benchmark datasets
0.1085495303	monitoring system
0.1085448286	resistance to
0.1085435308	to retrieve
0.1085395748	sub models
0.1085377048	v \
0.1085284815	each candidate
0.1085094445	clearly demonstrate
0.1085064760	the purpose of
0.1084980339	the main purpose
0.1084973250	a limiting case
0.1084838059	a synthetic dataset
0.1084661191	the one hand
0.1084562972	a service
0.1084532745	a new type of
0.1084484123	hold for
0.1084427335	sgd with
0.1084409109	fixed time
0.1084389992	two common
0.1084384652	particularly relevant
0.1084217107	\ rho ^
0.1084200819	the gaussian
0.1084162925	each object
0.1084027661	a deep neural network model
0.1083921841	competitiveness of
0.1083902179	better representations
0.1083874803	separated from
0.1083857918	a new tool
0.1083835475	parameters of
0.1083768090	an untrusted
0.1083752382	from first principles
0.1083702761	| \ mathcal s
0.1083674972	half of
0.1083563111	implications of
0.1083530166	exponentially with
0.1083409724	faster on
0.1083409268	a multi
0.1083153233	the careful
0.1083131527	tensor models
0.1083081985	by penalizing
0.1083073054	better scalability
0.1083056572	enforced by
0.1083049958	corresponding to
0.1082984905	usually takes
0.1082984885	a report
0.1082971572	complexity results for
0.1082890369	by altering
0.1082825754	both real and synthetic
0.1082784868	patches from
0.1082718556	formalization of
0.1082712069	5 \
0.1082652479	closed under
0.1082532817	generated according to
0.1082464714	art results in
0.1082277181	an appropriate choice
0.1082195349	method to optimize
0.1082171507	three approaches
0.1082151749	encoded as
0.1082121241	an event
0.1082012693	principled approach for
0.1081908805	optimization problem over
0.1081879337	these lower bounds
0.1081854690	the size of
0.1081853497	taking into
0.1081769694	methods suffer from
0.1081565336	widely adopted for
0.1081532911	benchmark and real
0.1081456893	framework provides
0.1081311508	important because
0.1081301065	by unfolding
0.1081199437	limitations of
0.1081185966	generalization properties of
0.1081157048	^ n \ times
0.1081004229	out of sample prediction
0.1080984921	components of
0.1080830558	size of
0.1080824540	to terminate
0.1080742409	the underlying true
0.1080653072	framework to obtain
0.1080603834	attempts to find
0.1080475325	key to
0.1080286154	through numerical simulations
0.1080261190	preliminary results on
0.1080248001	the gauss newton
0.1080207636	over 10
0.1080160072	lack of data
0.1080048821	simulation studies show
0.1080014145	majority of existing
0.1079965599	under various conditions
0.1079860399	on three real world
0.1079838466	classified by
0.1079697937	$ n ^ 2
0.1079670701	learn by
0.1079553780	$ \ epsilon =
0.1079547380	a popular paradigm
0.1079457458	a costly
0.1079424184	region of
0.1079423692	using synthetic data
0.1079413722	integration of
0.1079372661	amount of labelled data
0.1079226477	\ pm 1
0.1079065972	than existing methods
0.1078995911	methods for deep learning
0.1078913128	optimization algorithms with
0.1078859150	a common practice
0.1078759717	the generator's
0.1078655049	leads to low
0.1078650174	the one class
0.1078537913	an ensemble based
0.1078504406	the spectral radius
0.1078444148	u \
0.1078429303	techniques for learning
0.1078374019	leads to significantly
0.1078175224	on multiple benchmark
0.1078112355	approach for clustering
0.1078055497	areas of
0.1078049182	of expensive black box
0.1077964874	level of
0.1077964353	single example
0.1077918612	performance across
0.1077888151	kronecker product of
0.1077870397	proposed to predict
0.1077868574	sometimes even
0.1077792913	different deep learning
0.1077747056	relaxation of
0.1077740149	from 5
0.1077599134	many application domains
0.1077454403	little research
0.1077446134	the number of clusters
0.1077437598	inequalities for
0.1077422792	the convergence rate
0.1077399468	mapping from
0.1077356912	order to study
0.1077350667	produce good
0.1077259811	extensive set of
0.1077259355	approach to understanding
0.1077230544	techniques like
0.1077071832	no loss
0.1077038676	to incorporate prior
0.1077017101	exploration exploitation in
0.1077015980	the impact of
0.1076836081	the mini batch
0.1076639754	$ mle
0.1076574761	1 + \
0.1076551573	often intractable
0.1076518643	strictly more
0.1076497056	geometry of
0.1076355792	orders of
0.1076313198	other areas
0.1076297172	on manifolds
0.1076131540	case of
0.1076130080	compared to other methods
0.1076027769	methods like
0.1075989938	more interestingly
0.1075905565	from different perspectives
0.1075889518	a real valued
0.1075838322	the number of variables
0.1075679237	\ theta ^ * \
0.1075552841	on 12
0.1075418999	invested in
0.1075401770	two group
0.1075308880	a ground truth
0.1075300973	widely used approach
0.1075241323	as much as
0.1075159318	computation of
0.1075097729	the expected reward
0.1075064760	the utility of
0.1075064760	the aim of
0.1075033857	issues like
0.1074869536	a limited number of
0.1074853507	a 3d
0.1074782348	those found
0.1074768726	empirical analysis of
0.1074631540	efficiency of
0.1074573280	prevalence of
0.1074472281	impact of
0.1074452144	engage in
0.1074291751	each subset
0.1074231806	only once
0.1074051889	advancement of
0.1074031831	both offline and online
0.1073977459	clustering with
0.1073869050	while exhibiting
0.1073810977	more interesting
0.1073787596	potential of machine learning
0.1073782480	| +
0.1073756150	deep neural networks as
0.1073710049	choice of parameters
0.1073690789	derived using
0.1073671222	facets of
0.1073633529	an exciting
0.1073631540	estimate of
0.1073607965	impacts on
0.1073506272	reduced to
0.1073282438	to explore
0.1073190865	recurrent neural networks with
0.1073176024	failure in
0.1073116427	good representation
0.1073115496	\ ell_ 2
0.1073087604	overestimation of
0.1073067041	shortcoming of
0.1072918638	these techniques
0.1072647704	does not depend
0.1072631323	more data efficient
0.1072531882	this method
0.1072488459	a simple greedy
0.1072163483	small neighborhood of
0.1072129869	great potential in
0.1071918723	comparative study on
0.1071909645	performance of neural networks
0.1071854690	the quality of
0.1071854690	a function of
0.1071758071	$ l =
0.1071750197	right to
0.1071596761	decision making in
0.1071559645	to localize
0.1071322195	still suffer
0.1071216813	the precision matrix
0.1071194837	$ 0,1 ^ d
0.1071108650	no consensus
0.1071092294	connected to
0.1071030251	propose two
0.1071007193	more easily
0.1070974758	recent advances on
0.1070829066	importance of
0.1070822474	the id
0.1070778886	proposed by
0.1070777241	sub samples
0.1070720939	molecules with
0.1070666466	do not assume
0.1070645758	reinforcement learning models
0.1070517103	performance in terms of
0.1070503501	d +
0.1070358441	b \
0.1070299912	strengths and weaknesses of
0.1070160216	annotations for
0.1070137711	a provably efficient
0.1070134399	the expected return
0.1070121741	mean function
0.1069985866	a richer
0.1069981014	more efficiently than
0.1069966208	by truncating
0.1069918021	unbiased estimate of
0.1069904503	impossible to
0.1069853163	sample size n
0.1069826739	interested in learning
0.1069751320	an effective strategy
0.1069750496	\ mathbf f
0.1069687946	an unknown function
0.1069652489	performance than
0.1069563857	this restriction
0.1069475282	a 1d
0.1069450186	both convex and non convex
0.1069398126	one or two
0.1069394139	to defend
0.1069380139	the underlying distribution
0.1069362894	many authors
0.1069294118	model for classification
0.1069284687	probability models
0.1069176182	method provides
0.1069143222	a centralized
0.1069111698	amenable for
0.1069079808	a b
0.1069049623	learning with noisy
0.1069031992	a complete
0.1069012609	more relaxed
0.1068993854	a tunable
0.1068853271	+ \ text
0.1068696742	combination of features
0.1068682671	simple and easy to
0.1068556012	performance to state of
0.1068236513	the main task
0.1068162353	a lot
0.1068160687	a recently introduced
0.1068094557	parsimonious models
0.1067884214	an inverse
0.1067750110	point of
0.1067693833	empirical studies show
0.1067671241	generalization ability of
0.1067665438	by adjusting
0.1067656392	these regularizers
0.1067435826	a novel stochastic
0.1067256272	critical for
0.1067199366	paths between
0.1067115742	extraction of
0.1067105259	solved with
0.1067015980	the existence of
0.1067015980	the success of
0.1067015980	the importance of
0.1066968227	a diverse set of
0.1066923599	the fixed confidence
0.1066901840	an overly
0.1066806714	drawback of
0.1066792499	four different
0.1066536444	promise for
0.1066424637	a new family of
0.1066412501	an hour
0.1066354923	a sparse solution
0.1066334881	process of learning
0.1066319653	different modes
0.1066029797	analysis of convergence
0.1066020759	large scale datasets with
0.1066020077	applications such as image
0.1065944736	catastrophic forgetting in
0.1065822131	w \ in
0.1065801298	interactions with
0.1065787231	able to reach
0.1065752177	transformation between
0.1065731784	insights on
0.1065681787	the number
0.1065656194	deep learning algorithms for
0.1065637844	set of vectors
0.1065496853	practitioners often
0.1065318118	early diagnosis of
0.1065259183	particularly difficult
0.1065253752	decisions with
0.1065240368	armed bandit problem with
0.1065204996	significantly improved by
0.1065120173	the underlying manifold
0.1065097958	noise models
0.1065092004	* =
0.1065085850	while maintaining high
0.1064996173	algorithms for stochastic
0.1064905797	recent years due
0.1064747578	the recorded
0.1064720526	performance against
0.1064649270	sufficient conditions on
0.1064527574	help identify
0.1064502866	criterion for
0.1064402526	very flexible
0.1064391309	the true parameter
0.1064349057	the trade off between
0.1064303891	response time
0.1064154298	estimation of conditional
0.1064003864	a model trained
0.1063872105	a conjugate
0.1063831599	words into
0.1063736013	a view
0.1063682343	the heat kernel
0.1063664101	to integrate
0.1063591289	by maximizing
0.1063524727	the number of samples
0.1063487234	tests based on
0.1063257758	a sensitivity analysis
0.1063095095	based on alternating
0.1062889930	the reward function
0.1062886464	an energy based
0.1062865809	a molecular
0.1062823625	typically focus on
0.1062774868	space of
0.1062769499	dependence among
0.1062730696	picture of
0.1062674823	networks trained on
0.1062669714	on several synthetic
0.1062548000	employed by
0.1062480716	same class
0.1062393549	a note on
0.1062299944	to automatically infer
0.1062209266	theoretical basis for
0.1062196777	problem by learning
0.1062091249	behaviour of
0.1062066517	the problem of inferring
0.1061992491	approach to handle
0.1061960780	identical to
0.1061927932	convex relaxations for
0.1061874270	by eliminating
0.1061690167	8 \
0.1061660705	a smoother
0.1061660248	the output space
0.1061609856	a given input
0.1061253765	on mnist and fashion mnist
0.1061114945	using transfer learning
0.1061031620	leading cause of
0.1060931666	an ising model
0.1060929446	optimal trade off between
0.1060888992	by adding noise
0.1060792096	model to estimate
0.1060712905	reconstruction of
0.1060644403	key component of
0.1060584172	an abstract
0.1060581925	more sample
0.1060521958	change in
0.1060501111	a trade off between
0.1060446373	three classes
0.1060281487	discretization of
0.1060252140	differentiable models
0.1060237229	addition to
0.1060125730	properties of neural
0.1060008952	general non
0.1059995398	popularity due
0.1059970371	a bayesian framework
0.1059927716	properties such as
0.1059924062	evaluation using
0.1059884129	an asymmetric
0.1059758991	conditions for
0.1059570268	sufficiently many
0.1059473460	performance in practice
0.1059344342	a small fraction of
0.1059163972	a plug
0.1059050225	a large variety of
0.1059008165	to write
0.1058966968	optimized for
0.1058852335	framework to compute
0.1058798285	r ^ n \ times p
0.1058792570	the partition function
0.1058738516	known as
0.1058580876	a module
0.1058452878	approach provides
0.1058410095	factor of 2
0.1058354025	during model training
0.1058222281	studied in
0.1058112262	without introducing
0.1058071130	improvement of
0.1058058786	a non uniform
0.1058055497	concept of
0.1058055497	discovery of
0.1057886187	power of deep
0.1057780523	based on gaussian process
0.1057517133	training of machine learning models
0.1057486064	percent of
0.1057386083	provide examples of
0.1057371322	to identify potential
0.1057358882	mathematical framework for
0.1057284935	the network parameters
0.1057231856	c \
0.1057145552	key components of
0.1057101793	component of
0.1056913722	variations of
0.1056839606	guarantees on
0.1056763823	the local neighborhood
0.1056712561	results concerning
0.1056711335	a generalized linear model
0.1056592013	methodology provides
0.1056459275	exhibits better
0.1056310872	the log marginal
0.1056222053	successful application of
0.1056196786	joint modeling of
0.1056159318	context of
0.1056081639	evolve over
0.1056033579	the curse of dimensionality
0.1055927669	mostly focused
0.1055818147	cross validation for
0.1055662848	able to cope
0.1055559265	ordering of
0.1055512261	work highlights
0.1055506530	than vanilla
0.1055488742	as deep neural networks
0.1055436019	approach to study
0.1055414550	for large scale machine
0.1055294585	a sparse model
0.1055273017	help improve
0.1055235860	very powerful
0.1055215774	$ \ boldsymbol \ beta
0.1055129455	loss function based on
0.1055087891	take values
0.1055064760	a mixture of
0.1055002466	in many contexts
0.1054963303	method on
0.1054859265	the proposed formulation
0.1054807002	neural architecture search for
0.1054785654	better robustness
0.1054700961	field of deep learning
0.1054688752	do not satisfy
0.1054592218	to judge
0.1054590337	$ 20
0.1054510753	the simulator
0.1054480122	do not work well
0.1054350126	orders of magnitude more
0.1054244964	relatively large
0.1054118855	compared with other state of
0.1054031857	reduction using
0.1054002649	logarithm of
0.1053867707	these models
0.1053858914	based on support vector
0.1053815354	an unsolved
0.1053749281	for high dimensional linear
0.1053692369	the disparate
0.1053461359	considerable amount of
0.1053440594	the e step
0.1053410920	reported in
0.1053340256	to find
0.1053207096	the probability density function
0.1053097247	asymptotic distribution of
0.1053077506	established under
0.1052972177	set of distributions
0.1052926783	by feeding
0.1052718118	risk using
0.1052596082	stochastic methods for
0.1052477499	variety of real
0.1052448912	fixed number of
0.1052431167	based algorithm for
0.1052423847	by constructing
0.1052385786	to evade
0.1052333043	other languages
0.1052259668	fields such as
0.1052123608	from statistical physics
0.1051850719	estimator for
0.1051803935	on several benchmark datasets
0.1051474363	predictive mean
0.1051336046	used to select
0.1051296432	in comparison to
0.1051081631	difficult to model
0.1051026998	a good
0.1050879643	based on projected
0.1050833839	an efficient manner
0.1050820181	| u
0.1050524697	class of models
0.1050447107	n \ right
0.1050444424	requirement of
0.1050431925	within 2
0.1050330767	to bridge
0.1050282650	learned using
0.1050247056	benefit of
0.1050239213	both theoretically and experimentally
0.1050232687	problems with
0.1050153866	these estimators
0.1050067232	non linear structure
0.1050055508	applicable to large
0.1049727128	these criteria
0.1049713860	algorithms for general
0.1049687695	based on uncertainty
0.1049513330	a non linear
0.1049500068	a deep convolutional neural
0.1049445682	statistical theory of
0.1049388550	potentially different
0.1049293011	learnt by
0.1049096262	determinant of
0.1048998715	many solutions
0.1048966386	problem in statistical
0.1048945837	strategy using
0.1048888546	a lower dimensional
0.1048804882	an approximate
0.1048801697	through extensive
0.1048801232	different task
0.1048793916	more expensive
0.1048771424	effects on
0.1048710070	further accelerate
0.1048661774	an ordinal
0.1048661210	variational inference in
0.1048655876	and statistically
0.1048631672	motivation for
0.1048570595	adaptation using
0.1048388792	approach leads to
0.1048358425	to distribute
0.1048334129	ensemble of
0.1048321160	three contributions
0.1048249314	trained jointly with
0.1048157748	proposed for
0.1048143916	inference for
0.1048010883	and backward
0.1047964619	$ x =
0.1047936267	methodology for
0.1047829824	wide variety of data
0.1047762724	a white box
0.1047745074	morbidity and
0.1047703164	minimizers of
0.1047605563	an offline
0.1047597067	achieve top
0.1047568052	make full use
0.1047528050	the input layer
0.1047503549	each day
0.1047465950	two view
0.1047405288	s =
0.1047391715	also show
0.1047348340	increasing interest in
0.1047293946	in multi task learning
0.1047182720	contrast to conventional
0.1047102318	to empower
0.1046999779	a learning algorithm
0.1046958889	techniques such as
0.1046837508	method to recover
0.1046793060	provable guarantees on
0.1046759183	non probabilistic
0.1046748321	and real data analysis
0.1046658788	the first layer
0.1046575443	based on graph convolutional
0.1046550667	inverse reinforcement learning with
0.1046497056	success of
0.1046378722	trained by gradient
0.1046013905	by proving
0.1045987055	detector using
0.1045847879	popular tool for
0.1045736691	batch version of
0.1045462017	call detail
0.1045337522	a standalone
0.1045198570	into clusters
0.1045163784	a theoretical
0.1045138700	by transforming
0.1045119365	recent successes of
0.1045067526	dual formulation of
0.1045029518	detection of adversarial
0.1045020058	under reasonable
0.1044960632	the log determinant
0.1044929115	the lb
0.1044770502	a dynamically
0.1044744565	problem in
0.1044732336	\ &
0.1044680275	\ sqrt p
0.1044646332	sequence of random
0.1044476412	classification with
0.1044473542	terms of computation
0.1044406922	used in
0.1044327170	experiments on six
0.1044304806	to slow
0.1044257323	the art unsupervised
0.1044229485	the network size
0.1044228494	regression model with
0.1044225971	the presence of label noise
0.1044096007	necessity of
0.1044052345	well to unseen
0.1043901588	segmentation of
0.1043839683	specific type of
0.1043819858	the square root
0.1043768460	generation of
0.1043735906	x _1
0.1043667518	estimation via
0.1043455970	take actions
0.1043444746	adaptable to
0.1043328244	for large scale learning
0.1043306626	downstream tasks such as
0.1043249172	$ p =
0.1043077993	performance analysis of
0.1042948228	learning for automatic
0.1042863466	provides evidence
0.1042818553	a finite set of
0.1042789933	maps between
0.1042717272	a powerful
0.1042648664	reduction in training
0.1042570122	for automated driving
0.1042521702	various fields
0.1042487527	on multiple datasets
0.1042471242	gaps in
0.1042445187	these regions
0.1042334548	consistency results for
0.1042287138	at least one
0.1042190117	a bi
0.1042167230	particular instance
0.1042119200	a promising alternative
0.1042083171	to enforce
0.1042058266	growing interest in
0.1042004334	recently shown to
0.1041980152	norms of
0.1041795299	binary models
0.1041562261	bayesian estimation of
0.1041287425	trained on data
0.1041278801	branches of
0.1040927161	increment of
0.1040916210	different categories
0.1040718768	a hyper parameter
0.1040699017	$ \ |
0.1040580841	conducted experiments on
0.1040444424	modes of
0.1040324093	the problem of minimizing
0.1040087222	in recent times
0.1040062432	$ \ | x \
0.1039997599	sorts of
0.1039984241	performance of deep
0.1039978799	to collaboratively learn
0.1039976731	correspond to different
0.1039911374	the chi square
0.1039718685	terms of prediction
0.1039677174	for low rank tensor
0.1039661955	each component
0.1039590662	model with
0.1039584692	to shape
0.1039532710	the global model
0.1039482682	and max pooling
0.1039443110	a sensitivity
0.1039374419	used to improve
0.1039238761	continual learning with
0.1039215688	almost all of
0.1039173786	throughout training
0.1039142126	different time scales
0.1038993850	a non convex
0.1038988836	the sum of
0.1038983558	approach to construct
0.1038732817	and support vector regression
0.1038615760	theoretical study of
0.1038607375	significantly reduced by
0.1038584473	stages of
0.1038530722	challenges in
0.1038447139	$ i = 1
0.1038446392	a lengthy
0.1038426076	graph convolutional network for
0.1038364524	a multi class
0.1038361379	a memory efficient
0.1037967977	data used for training
0.1037913456	results obtained using
0.1037844290	a fundamental role
0.1037734930	sequential nature of
0.1037699437	obtained with
0.1037609438	vote for
0.1037518090	by repeating
0.1037505139	the optimal rate
0.1037278350	all classes
0.1037215632	employed in
0.1037202209	remarkable results in
0.1037183309	the projected gradient descent
0.1037097337	consider high dimensional
0.1037044874	1 step
0.1037037736	still open
0.1037022234	online algorithm for
0.1037015980	the concept of
0.1036937111	the regularization parameter
0.1036927039	existing results on
0.1036784069	attacks on neural
0.1036746726	new task
0.1036722285	all kinds
0.1036557408	excel in
0.1036557408	specifics of
0.1036544585	the label complexity
0.1036439779	this trade off
0.1036418787	reduction of
0.1036396935	many researchers
0.1036388618	probabilistic model for
0.1036361037	the past years
0.1036293392	list of
0.1036093000	number of labeled data
0.1035984859	generalization capability of
0.1035890326	inference method for
0.1035854564	able to identify
0.1035820130	markov random fields with
0.1035618342	priors on
0.1035593134	a randomly initialized
0.1035539498	in order to obtain
0.1035531693	compared to training
0.1035297268	nonparametric approach to
0.1035234164	the learned metric
0.1035119419	difference of two
0.1034994550	framework for unsupervised
0.1034695373	a case
0.1034539217	across different domains
0.1034482888	representing different
0.1034394591	the alternating direction method of multipliers
0.1034187763	$ d \ times
0.1034132765	the unstructured
0.1034061095	paper deals with
0.1033885466	a bridge between
0.1033827586	experiment on
0.1033550735	as base learners
0.1033530670	the sample complexity
0.1033472482	demand for
0.1033454237	used to build
0.1033451226	behaves as
0.1033416689	attempts at
0.1033313327	the replay buffer
0.1033258934	without considering
0.1033257834	in high dimensional regression
0.1033253807	policy changes
0.1033222050	baseline system
0.1033197350	introduce two
0.1033115656	made by
0.1033112189	a machine learning technique
0.1033107388	based on joint
0.1032919609	proposed method gives
0.1032842502	a large amount of unlabeled
0.1032774868	inference in
0.1032603779	$ n =
0.1032562856	a novel hybrid
0.1032416385	well known issue
0.1032351790	principled method for
0.1032177851	algorithm proposed in
0.1032129571	minimization of
0.1032069950	highly non
0.1032066150	frameworks for
0.1032047702	a deep model
0.1032042696	datasets contain
0.1031971210	essential part
0.1031876565	pitfalls of
0.1031773976	the tabular setting
0.1031713111	strength of
0.1031611186	bayesian methods for
0.1031544899	out of distribution examples
0.1031523090	filtering for
0.1031492195	on real data
0.1031470434	better quality
0.1031369084	2 layer
0.1031341613	against black box
0.1031330767	to encode
0.1031312975	the first step
0.1031308921	$ \ mathbf m
0.1031296771	leveraged by
0.1031049522	a daily
0.1031048396	the model's
0.1030936336	several interesting
0.1030899207	a preprocessing step
0.1030871590	defined via
0.1030866752	does not rely
0.1030816300	this framework
0.1030783166	to accurately predict
0.1030770061	a graph
0.1030736071	results show significant
0.1030542477	an appealing
0.1030492983	a single parameter
0.1030142598	differ in
0.1030105575	in stochastic multi armed
0.1030009026	the global minimum
0.1029941688	does not always
0.1029774207	following question
0.1029581880	framework to predict
0.1029369983	with minimal
0.1029226365	the parameter server
0.1029191758	to certify
0.1029189338	community structure in
0.1029164372	gibbs sampler for
0.1029063356	$ \ mathbb p
0.1028971877	a common issue
0.1028970204	algorithms on real
0.1028938066	the true gradient
0.1028873040	of low dimensional subspaces
0.1028864043	approach to clustering
0.1028744964	further improvements
0.1028744565	algorithm to
0.1028614839	to allocate
0.1028553056	semi supervised learning of
0.1028548692	auto encoder with
0.1028447821	algorithm for online
0.1028385165	based on maximum
0.1028353888	back propagation algorithm
0.1028211152	issues associated with
0.1027990674	other arms
0.1027929704	an invertible
0.1027883244	over permutations
0.1027865098	\ mathcal q
0.1027856271	while controlling
0.1027816387	structure among
0.1027806572	decays as
0.1027806218	via optimal transport
0.1027781013	every time
0.1027594626	needing to
0.1027452614	a principle
0.1027269661	an unknown parameter
0.1027258991	scheme for
0.1027253774	an efficient framework
0.1027244565	results for
0.1027121846	all three
0.1027056114	a theoretical analysis
0.1027049444	conducted using
0.1027027800	strong performance on
0.1027015980	the design of
0.1026895617	not conform
0.1026856519	little work
0.1026605364	developments in
0.1026536589	achieved without
0.1026336489	to expand
0.1026298562	\ subseteq \
0.1026151353	dataset consists of
0.1026111768	improvements over state of
0.1026105096	the environment
0.1026013541	in many real world
0.1025893537	^ 2 t
0.1025865706	a reproducing kernel
0.1025860492	randomness in
0.1025771585	an increasingly important role in
0.1025671961	experiments on real and synthetic
0.1025648411	strong baselines on
0.1025631880	with side information
0.1025620563	h &
0.1025604896	arise due
0.1025601460	implicit bias of
0.1025551515	a considerable improvement
0.1025295182	within 1
0.1025248074	a precise
0.1025201082	do not reflect
0.1025067235	and tiny imagenet
0.1025064760	a factor of
0.1025048553	pre training on
0.1024972204	thus making
0.1024958099	computer vision problems
0.1024592082	non stationary data
0.1024472946	on cifar 10 dataset
0.1024281506	to misclassify
0.1024268577	no direct
0.1024251014	better accuracy
0.1024169350	combination of multiple
0.1024138739	involves only
0.1023953273	more involved
0.1023840452	different sizes
0.1023817618	translated to
0.1023739032	polynomial time algorithm for
0.1023693110	and largely
0.1023678508	an outcome
0.1023443110	the malicious
0.1023338830	employed for
0.1023236792	deal with large
0.1023236652	autonomous system
0.1023236513	the current state
0.1023155068	scheme using
0.1022897648	the indian buffet
0.1022859838	the cox proportional
0.1022859593	bayesian treatment of
0.1022785106	algorithm with
0.1022665493	to store
0.1022652745	on large scale real
0.1022542467	by discretizing
0.1022426714	learning from human
0.1022287534	a mutual information
0.1022273930	on github
0.1022100504	possible combinations
0.1022057868	convolutional neural networks for
0.1021853472	over four
0.1021716232	summary of
0.1021527669	towards better
0.1021427854	propose to address
0.1021287964	$ \ mathbb z
0.1021220363	after applying
0.1021138597	an instance
0.1020990821	the bias variance trade off
0.1020904428	a new ensemble
0.1020848130	intermediate layers of
0.1020843078	the total
0.1020592500	many times
0.1020519601	to invert
0.1020336423	~ \
0.1020334728	come with
0.1020011628	across modalities
0.1019917677	in multi label classification
0.1019913257	$ \ mathcal e
0.1019833894	a multitude
0.1019796335	to revise
0.1019763938	crafted by
0.1019755638	problems related to
0.1019673546	difficulties in
0.1019583275	analyses of
0.1019504684	method to reduce
0.1019474655	zero loss
0.1019448154	consequences of
0.1019431379	constructed via
0.1019291143	computationally less
0.1019279173	seem to
0.1019278958	under fairly
0.1019267053	fashion e
0.1019176170	= 3
0.1019012165	number of datasets
0.1018966208	often infeasible
0.1018950219	decrease in
0.1018807266	framework to perform
0.1018730970	^ 2 d
0.1018654137	mechanism for
0.1018647401	the original input
0.1018563918	problems such as
0.1018495089	the problem of identifying
0.1018399271	against overfitting
0.1018391966	by summing
0.1018294069	growth of
0.1018234026	crucial component of
0.1018141908	accurate estimate of
0.1018059836	amounts to
0.1017970332	a deep neural
0.1017713669	complexity per
0.1017677518	a central
0.1017622040	the underlying density
0.1017561662	but not necessarily
0.1017244565	datasets with
0.1017183606	the target network
0.1017145085	often contain
0.1017069385	an opportunity
0.1017057853	new computational
0.1017015980	the idea of
0.1016937111	a reward function
0.1016860662	an efficient solution
0.1016794126	the number of parameters
0.1016790732	images with
0.1016733487	revealed by
0.1016526795	a wide
0.1016423822	performances compared to
0.1016316259	central role in
0.1016280900	composed with
0.1016114339	methods to detect
0.1015757262	usually requires
0.1015602000	validity of
0.1015584172	by defining
0.1015578368	non sequential
0.1015535786	key contribution of
0.1015523587	all arms
0.1015433286	dependencies within
0.1015376044	problems with large
0.1015343313	\ in \ mathcal x
0.1015093977	= m
0.1015078297	several years
0.1015064760	a pair of
0.1014920650	a specific target
0.1014873123	the form of
0.1014832049	only noisy
0.1014759177	align with
0.1014604686	statistical performance of
0.1014598224	regularized by
0.1014587423	dynamics of
0.1014448392	an important goal
0.1014434927	through time
0.1014413428	strengths of
0.1014380124	s \
0.1014231806	six different
0.1014179388	a large number of classes
0.1014176687	requirement for
0.1014142147	for solving inverse
0.1014107138	minimal number of
0.1013886527	to refine
0.1013881573	typically used
0.1013845850	with 50
0.1013842417	a weighted graph
0.1013722164	interpretability of
0.1013389679	theoretical advantages of
0.1013372836	increased interest in
0.1013181463	the state of art
0.1013124208	each observation
0.1013021654	the nonsmooth
0.1012943356	complexity of neural networks
0.1012890189	the 2d
0.1012797234	beneficial to
0.1012755600	make explicit
0.1012734691	comparisons with
0.1012728143	a max margin
0.1012709728	the next generation
0.1012665493	to deploy
0.1012473138	defined with respect to
0.1012428560	necessary condition
0.1012405048	effects of data
0.1012063988	| | \
0.1012025172	to stop
0.1011996988	holds under
0.1011933567	assigned by
0.1011868231	through simulation studies
0.1011759045	superior performance in
0.1011754686	time series using
0.1011726099	in isolation
0.1011725384	method achieves better
0.1011713785	a web based
0.1011701730	an inverse problem
0.1011691758	to optimise
0.1011611664	significant increase in
0.1011491638	methods for deep
0.1011440597	to calibrate
0.1011371743	datasets show
0.1011354550	step sizes for
0.1011312022	transfer between
0.1011229726	original ones
0.1011017213	and imagenet datasets
0.1011009552	the 0 1 loss
0.1010998827	to visualize
0.1010998827	to inform
0.1010995668	mechanism based on
0.1010984423	very competitive
0.1010787377	good results
0.1010781295	an active research
0.1010697246	comparable performance with
0.1010653233	a parameterization
0.1010584273	best configuration
0.1010581055	application of deep
0.1010496656	\ | u
0.1010490108	techniques for
0.1010362225	representation power of
0.1010209442	at http
0.1010108740	evaluations on
0.1010098393	columns of
0.1010052342	the coarse grained
0.1009984905	still face
0.1009971134	more sample efficient than
0.1009901087	for enabling
0.1009864047	class of linear
0.1009859159	the probability simplex
0.1009601992	patterns from
0.1009526662	real time detection of
0.1009423745	an equivalent
0.1009268081	task of estimating
0.1009122935	the asymmetric
0.1009111638	of critical importance
0.1009047914	number of binary
0.1008991327	an lstm
0.1008966798	n log
0.1008908087	m \
0.1008903619	competitive with state
0.1008859598	more flexibility
0.1008847761	the cycle consistency
0.1008806438	out of
0.1008755255	the frequency domain
0.1008655876	the behavioral
0.1008485545	using support vector
0.1008467122	significant advances in
0.1008456207	no bad
0.1008315370	in non stationary environments
0.1008210617	the remainder
0.1008025731	these quantities
0.1007988062	rnn models
0.1007808205	analogs of
0.1007805898	an answer
0.1007770941	performs very
0.1007732849	$ \ min
0.1007724920	t exponential
0.1007579607	by forcing
0.1007544784	estimation of parameters
0.1007530668	a style
0.1007516335	utilized to
0.1007514444	and real data experiments
0.1007500494	expense of
0.1007469751	$ \ geq
0.1007463136	the machine learning model
0.1007328144	optimal up to logarithmic
0.1007294436	the other side
0.1007227506	centered on
0.1007216971	approach to mitigate
0.1007190043	algorithm on real
0.1006895298	than others
0.1006875596	a target domain
0.1006854563	at risk
0.1006830958	methods for machine learning
0.1006827966	an efficient training
0.1006815476	proposed to estimate
0.1006707719	markov properties for
0.1006692895	neural networks for image
0.1006674542	three stages
0.1006543155	comparing to
0.1006511359	a digital
0.1006454239	predictions from
0.1006431865	too high
0.1006405728	fluctuations in
0.1006302036	process of training
0.1006300288	changes in
0.1006129018	written by
0.1006102458	$ approximate
0.1006013734	clustering using
0.1005916130	noisy time
0.1005833225	$ 2d
0.1005610328	well suited to
0.1005514207	actor critic with
0.1005479932	a runtime
0.1005463544	linear regression with
0.1005350085	to treat
0.1005308296	variety of synthetic and real
0.1005295488	reduces to
0.1005237022	generating new
0.1005210410	in so doing
0.1005166623	irregular time
0.1005063440	prediction accuracy than
0.1004944104	from 12
0.1004922650	equations from data
0.1004863813	generated through
0.1004736588	\ mu ^
0.1004688610	case of binary
0.1004611091	represented in
0.1004577819	the l2 norm
0.1004546717	few percent
0.1004531704	above issues
0.1004414732	toolkit for
0.1004372995	limitation of
0.1004349863	point of interest
0.1004346031	an end to end training
0.1004307016	a model's prediction
0.1004047126	a deep reinforcement
0.1004046679	principal component analysis with
0.1003980682	set of techniques
0.1003931468	an empirical comparison
0.1003908087	$ k =
0.1003897320	in order to ensure
0.1003791994	a sparse graph
0.1003707813	features to predict
0.1003633991	techniques developed for
0.1003611289	to distinguish
0.1003563542	the problem
0.1003457692	various areas
0.1003439005	each location
0.1003418015	competence of
0.1003405183	an artifact
0.1003401073	by identifying
0.1003226311	to emulate
0.1003165333	ignorance of
0.1003089838	deep learning for
0.1002980896	different tasks
0.1002895346	the mechanical
0.1002821150	on several public
0.1002678101	an important open
0.1002552317	by looking at
0.1002532403	possible ways
0.1002438171	a point estimate
0.1002325476	statistical aspects of
0.1002274565	the actor critic
0.1002202059	a multi level
0.1002183702	network to obtain
0.1002108320	future directions for
0.1002064354	mainly in
0.1002057360	an ising
0.1002046416	novel reinforcement learning
0.1002004732	the average degree
0.1001971038	the long short term
0.1001927342	significant amount
0.1001912108	the current task
0.1001906738	effect of noise
0.1001904830	the max margin
0.1001882608	the standard
0.1001865778	few decades
0.1001770163	$ fraction
0.1001696142	n +
0.1001629251	approach to reduce
0.1001510009	the proposed solution
0.1001436186	\ mathcal o \ big
0.1001423276	the test data
0.1001401745	lies on
0.1001391921	the log density
0.1001387703	the trace norm
0.1001344634	each sub
0.1001316881	method builds on
0.1001239124	based on machine
0.1001214541	tasks such as classification
0.1001092568	finite time analysis of
0.1001062688	existing methods either
0.1001059344	networks trained with
0.1001007689	propose to
0.1000850788	transformations between
0.1000647459	better performance compared
0.1000548450	while minimizing
0.1000453472	computationally efficient algorithm for
0.1000451730	the offline setting
0.1000364045	an important component
0.1000296422	a relative
0.1000215489	an incorrect
0.1000147684	stochastic gradient methods for
0.0999978112	by choosing
0.0999937208	a summary
0.0999930681	this notion
0.0999874820	datasets collected from
0.0999868709	by converting
0.0999799601	robustness of deep learning
0.0999771875	proxies for
0.0999636257	a formula
0.0999518369	bound of order
0.0999480487	the data dimension
0.0999454389	methods such as
0.0999332442	these tests
0.0999264095	on 30
0.0999259224	the prototypical
0.0999232786	platform for
0.0999219873	performed at
0.0999209509	arise due to
0.0999203882	the kronecker product
0.0999140366	to robustify
0.0999050521	the entire graph
0.0999020347	the c bound
0.0998992311	the true reward
0.0998768666	baselines on
0.0998734086	comparable or even
0.0998650658	the current practice
0.0998606550	on held out data
0.0998589265	convergence rate than
0.0998585096	two factors
0.0998463290	data as input
0.0998393039	all cases
0.0998359236	a key component
0.0998347239	by aggregating
0.0998239673	a recurrent neural
0.0998020416	based on deep neural
0.0997925627	applicability of
0.0997872559	regret with respect to
0.0997826111	for text categorization
0.0997822810	limited because
0.0997785145	convolutional neural networks with
0.0997685033	compression with
0.0997667058	an efficient method
0.0997597598	on unseen data
0.0997559746	a generalizable
0.0997551722	i = 1 ^ n
0.0997482943	sharing between
0.0997474695	the expressive
0.0997431628	machine learning techniques for
0.0997418653	theory of
0.0997363812	provide better
0.0997323868	predictions about
0.0997261929	a depth
0.0997220543	less training data
0.0997203111	and cifar10 datasets
0.0997095514	distribution of data
0.0997004270	intractability of
0.0996986525	the dot product
0.0996957981	computationally more
0.0996687905	framework for distributed
0.0996679289	small amount of
0.0996651462	a simple method
0.0996629682	applied to real
0.0996249945	a popular
0.0996214714	time series features
0.0996058025	more than two
0.0996001009	results from
0.0995983675	the network's
0.0995853610	two views
0.0995847311	to check
0.0995786403	many applications
0.0995779851	conditional expectation of
0.0995728813	the proposed network
0.0995597716	estimators for
0.0995574417	$ m \ times
0.0995411821	at most one
0.0995318893	to high dimensional problems
0.0995268641	to remedy
0.0995257624	the network weights
0.0995236433	a pre specified
0.0995194602	submitted to
0.0995127052	framework to improve
0.0995042049	the linear convergence rate
0.0995033205	by relaxing
0.0994929037	a linearly
0.0994919371	often involves
0.0994772961	inferior to
0.0994715438	crux of
0.0994652867	classifier trained with
0.0994587591	not want
0.0994498017	n \ times
0.0994479958	samples to train
0.0994478402	from incomplete data
0.0994466462	an important problem
0.0994463460	relatively high
0.0994264125	recorded by
0.0994210058	scales with
0.0993994858	an extra
0.0993829534	the trade offs
0.0993814912	gradient methods for
0.0993811183	deep generative model for
0.0993787060	gradient descent algorithm for
0.0993777181	time to event data
0.0993549806	the second phase
0.0993427310	analyzed using
0.0993234836	each example
0.0993233613	\ geq 2
0.0993124980	the total number
0.0993111353	the likelihood function
0.0993041966	not adequately
0.0992963797	independently from
0.0992818820	of multi view data
0.0992783559	the atomic
0.0992757390	in model based reinforcement learning
0.0992559217	an ensemble of
0.0992403205	empirically shown to
0.0992352717	k way
0.0992188686	viability of
0.0992127491	each topic
0.0991947998	of handwritten digits
0.0991928692	to counter
0.0991810478	justifications for
0.0991768652	also report
0.0991731365	passed to
0.0991638359	significant loss of
0.0991381873	proposed so far
0.0991210288	the latent variables
0.0991186801	more coherent
0.0990957371	the ensuing
0.0990932404	methodology using
0.0990847118	a compact
0.0990824661	complex system
0.0990808547	all modalities
0.0990765672	approach to extract
0.0990755458	across time
0.0990606338	^ 3 \ varepsilon
0.0990580937	increasing availability of
0.0990538574	an imbalanced
0.0990530210	criteria for
0.0990451040	heterogeneity in
0.0990433389	accuracy comparable to
0.0990332732	achieving better
0.0990331274	all entries
0.0990247056	spectrum of
0.0990222849	for low rank matrix
0.0990182940	a graph based
0.0990165129	taken in
0.0990129646	+ n
0.0989949030	important for
0.0989941700	by 30
0.0989761799	then aggregated
0.0989706064	becomes difficult
0.0989656784	usually require
0.0989584692	a running
0.0989548657	the imagenet dataset
0.0989517293	performance in
0.0989501046	propose to improve
0.0989453319	x | |
0.0989353497	implemented via
0.0989310806	a classifier's
0.0989264919	ratio between
0.0989235799	found to outperform
0.0989045925	while allowing
0.0988969602	feature extraction from
0.0988716169	the number of features
0.0988670824	the intra class
0.0988553255	upper bounds of
0.0988489443	different costs
0.0988435920	a significant difference
0.0988315483	$ \ mathcal c
0.0988145652	50 \
0.0988039943	an on line
0.0987665493	to recommend
0.0987551641	$ 1 e
0.0987450921	a common subspace
0.0987443833	wide applicability of
0.0987433049	the missing mass
0.0987426683	grows with
0.0987414387	problem caused by
0.0987382647	descriptions of
0.0987357258	proposed to achieve
0.0987317170	numerical results on
0.0987208897	other sensors
0.0987146265	lead to significantly
0.0987133666	new links
0.0986982811	sequence of tasks
0.0986951997	taken from
0.0986668436	architecture consisting of
0.0986574097	\ sum
0.0986516545	with random weights
0.0986503112	the demonstrator's
0.0986487399	fairness with respect to
0.0986470532	fundamental question of
0.0986417971	approaches for
0.0986371579	the experimental results
0.0986360134	theoretical interest
0.0986198523	trade offs of
0.0986187546	much more difficult
0.0986183166	guarantees under
0.0986172719	lines of
0.0986152314	to argue
0.0986105096	the case
0.0986083906	more accurate and robust
0.0986008415	second best
0.0985579746	other popular methods
0.0985498924	the attention mechanism
0.0985363905	feasibility of
0.0985321072	the empirical risk minimization
0.0985233594	leads to better
0.0985194384	the globe
0.0985155522	experiments on five
0.0985086120	does not explicitly
0.0985042535	the black box nature
0.0984982757	a first order
0.0984945345	the koopman
0.0984892581	several modifications
0.0984846007	few measurements
0.0984789583	different perspectives
0.0984759959	number of experiments
0.0984709574	without explicit
0.0984558979	method performs better
0.0984534812	the repeated
0.0984486862	variable of interest
0.0984483752	often suffers
0.0984220596	a risk
0.0984172019	envelope of
0.0984144977	a change point
0.0984009529	recurrent neural network for
0.0983807751	in medicine
0.0983407037	an efficient implementation
0.0983393231	a navigation
0.0983343078	the sense
0.0983178229	the input dimension
0.0982760875	the loop
0.0982695666	procedure for
0.0982625762	aligns with
0.0982583275	result for
0.0982577508	often fail
0.0982528103	costs associated with
0.0982387591	a linear operator
0.0982249292	plausibility of
0.0982027211	subset of relevant
0.0981995843	full time
0.0981969674	dataset of
0.0981883204	a riemannian
0.0981787335	algorithm performs well
0.0981766610	$ \ hat \ boldsymbol
0.0981650126	the majority of
0.0981440597	to suppress
0.0981369731	both in theory and practice
0.0981290502	empirical validation of
0.0981191177	applicability to
0.0981114839	to constrain
0.0981100712	graph convolutional networks for
0.0981063713	the neural network model
0.0981004828	applied directly to
0.0980998827	to uncover
0.0980973551	multiple models
0.0980957399	regression with
0.0980917071	facilitate further
0.0980872553	in order to overcome
0.0980725299	only minor
0.0980717309	t +
0.0980675578	the minimax regret
0.0980556921	real world datasets from
0.0980510471	across many
0.0980376194	several papers
0.0980357843	to keep
0.0980310081	two complementary
0.0980289493	learning for high
0.0980269555	based on convolutional neural
0.0980170034	an argument
0.0980167385	all views
0.0980087604	the pdf
0.0980020486	smaller number of
0.0979998290	techniques to solve
0.0979928525	accepted by
0.0979915579	on 7
0.0979711832	the accuracy of
0.0979698659	a tractable
0.0979629660	new architectures
0.0979555497	rates for
0.0979441443	and healthy controls
0.0979347939	analysis provides
0.0979226709	multi variate time
0.0979028507	generalizability of
0.0979001166	non linear function
0.0978965883	implemented on
0.0978880123	robust to model
0.0978719860	to locate
0.0978714119	variety of scenarios
0.0978694733	12 \
0.0978674620	unlike many
0.0978639682	to foster
0.0978634740	a consistent estimator
0.0978616143	multiple sets of
0.0978521822	family of methods
0.0978450344	rich set of
0.0978449313	the goal of
0.0978383842	algorithm to address
0.0978338686	ingredient of
0.0978306916	the art neural networks
0.0978265243	contrast to prior work
0.0978090225	a common strategy
0.0978067229	used to obtain
0.0978011289	to boost
0.0977925627	connection to
0.0977905568	different forms
0.0977882649	two steps
0.0977732020	by initializing
0.0977498952	the algebraic
0.0977482927	to fuse
0.0977348054	becomes more
0.0977347921	improvements on
0.0977330095	shortcomings of
0.0977252415	real world applications of
0.0977206354	the deep neural network
0.0977191289	by taking
0.0977183767	distributed according to
0.0977182771	to revolutionize
0.0977101491	real ones
0.0977096673	better predictive performance
0.0977083275	sensitivity of
0.0977006962	a purely
0.0976946280	every pair of
0.0976924072	at training time
0.0976909315	this paper concerns
0.0976758071	$ 0 p
0.0976700524	different contexts
0.0976626458	em algorithm for
0.0976606897	successes in
0.0976541751	help detect
0.0976531718	variety of fields
0.0976329658	the formalism
0.0976088830	inherent in
0.0976044608	recorded at
0.0976018546	the exploration exploitation trade off
0.0976007077	the methodological
0.0975969762	relevant features from
0.0975937455	the unbiased
0.0975930010	the original image
0.0975862211	works better
0.0975837482	the final result
0.0975609292	two main approaches
0.0975606294	struggle to
0.0975565920	variety of experiments
0.0975553194	to simplify
0.0975397057	to ameliorate
0.0975340992	propose to estimate
0.0975329947	a forecast
0.0975322548	the expected cost
0.0975312763	problem of off policy
0.0975290459	for large scale datasets
0.0975178424	learning based approach to
0.0975171228	wisdom of
0.0975138259	three benchmark datasets
0.0975123284	structure of data
0.0974944360	\ times p
0.0974747772	a post hoc
0.0974739936	exploration via
0.0974736588	\ lambda ^
0.0974636388	the model space
0.0974614474	recently introduced as
0.0974584927	experiments on four
0.0974471990	the unprecedented
0.0974396666	potential benefits of
0.0974371003	used to augment
0.0974297492	and reliably
0.0974269254	a comprehensive experimental
0.0974163236	the transferability
0.0974103142	a relational
0.0974093111	the current paper
0.0974031568	future development of
0.0974006141	algorithm in practice
0.0973879717	infinite number of
0.0973859598	more comprehensive
0.0973845850	with 6
0.0973816119	gains in
0.0973626133	the final layer
0.0973615096	estimated via
0.0973577512	already in
0.0973499766	in distribution samples
0.0973443110	the overhead
0.0973387342	architecture for learning
0.0973345030	fourier transform of
0.0973211943	error of
0.0973169778	the signal's
0.0973157113	all previous
0.0972973221	max value
0.0972770990	these conditions
0.0972744119	based on artificial neural
0.0972733621	other things
0.0972597742	method for classification
0.0972592101	fine tuning with
0.0972568652	at initialization
0.0972559650	infeasible due to
0.0972481997	asymptotic bounds on
0.0972324531	a local minimizer
0.0972307469	and rigorously
0.0971967949	both simulated and real world data
0.0971921925	the stochastic multi armed
0.0971774833	magnitude of
0.0971764125	speedups on
0.0971644686	comparison against
0.0971484090	task of classification
0.0971369658	too complex
0.0971332127	each subspace
0.0971330150	adding noise to
0.0970998827	to express
0.0970997728	possible actions
0.0970943690	computer simulation
0.0970859980	algorithm runs in
0.0970826936	the graph topology
0.0970779442	quite general
0.0970758373	other state of
0.0970723024	objective based on
0.0970687357	distributed learning with
0.0970515590	incorporated in
0.0970416608	representative of
0.0970325746	with limited memory
0.0970220382	neural network training with
0.0970175611	the entire sequence
0.0970137325	real world datasets for
0.0970125815	a self contained
0.0970117100	literature on
0.0970100338	fair with respect to
0.0970080206	minimal loss in
0.0970051251	principal component analysis for
0.0969960434	the deep rl
0.0969745539	prior knowledge on
0.0969718206	a real application
0.0969698907	the basis of
0.0969648417	federated learning via
0.0969576176	work opens
0.0969498124	points in
0.0969402174	datasets indicate
0.0969286888	built by
0.0969262137	an abundance of
0.0969242489	deployment of machine
0.0969185127	goal of
0.0969107847	in order to maximize
0.0969060094	in order to learn
0.0969040091	a single network
0.0968750067	a kernel function
0.0968662669	a wide array of
0.0968628575	d \ times
0.0968497791	on two distinct
0.0968432556	between cluster
0.0968348252	adding more
0.0968316342	optimization framework for
0.0968278078	on various real world
0.0968138092	these bounds
0.0968068894	priors for
0.0968014913	structure of neural networks
0.0967915138	the benign
0.0967745844	small changes
0.0967678542	various benchmark datasets
0.0967535765	the backbone
0.0967501867	information encoded in
0.0967478447	analysis of multi
0.0967375299	into disjoint
0.0967363812	improve over
0.0967294903	effective tool for
0.0967278161	the way towards
0.0967064876	trustworthiness of
0.0967015980	the robustness of
0.0966974147	this exciting
0.0966885448	the target classifier
0.0966882629	a real robot
0.0966842796	a high probability
0.0966768002	an indoor
0.0966709705	richness of
0.0966704007	layers of
0.0966632875	by regressing
0.0966617940	the throughput
0.0966542104	labels from
0.0966537554	order to generate
0.0966512315	both quantitatively and qualitatively
0.0966495354	support vector machine with
0.0966495249	method for modeling
0.0966422516	these two
0.0966407881	recent studies show
0.0966375634	this situation
0.0966333142	the pareto
0.0966290458	between nodes
0.0966214361	vector representations of
0.0966063075	performance of existing
0.0966060990	different versions
0.0966043054	prospect of
0.0966040405	x \
0.0965964597	data gathered from
0.0965828323	tensor factorization for
0.0965694302	the semi supervised learning
0.0965645372	achieved using
0.0965493154	phases of
0.0965473351	provide state of
0.0965463168	recent results in
0.0965335671	test example
0.0965293946	for multi task learning
0.0965283258	sharing across
0.0965271099	the dual variable
0.0965243716	the view
0.0965233005	approach to training
0.0965215883	adapted for
0.0965059692	simulations show
0.0964977774	estimation of multiple
0.0964924996	\ frac k
0.0964788342	framework for training
0.0964770502	the profile
0.0964588810	package for
0.0964450010	two primary
0.0964422521	graphs with
0.0964304851	a gibbs sampler
0.0964197007	topological structure of
0.0964160662	\ alpha 1
0.0964141222	a common assumption
0.0964099513	an important task
0.0964089212	random forest models
0.0964085206	for model based reinforcement learning
0.0963993763	a significant reduction
0.0963980839	a top down
0.0963836780	small changes in
0.0963750118	the defender
0.0963649253	quantify uncertainty in
0.0963552826	discrimination between
0.0963546278	expectations of
0.0963333551	several real world
0.0963291483	large sets of
0.0963126382	several times
0.0963118665	without explicitly
0.0963068628	theoretical guarantee on
0.0962994692	the instability
0.0962925626	for self driving cars
0.0962866306	prediction based on
0.0962772468	all nodes
0.0962766066	for multi modal
0.0962573159	number of factors
0.0962548865	experiments on several
0.0962424996	$ c ^
0.0962411913	training and test time
0.0962375788	much research
0.0962358846	\ beta +
0.0962339811	spatial distribution of
0.0962309945	different phases
0.0962240791	a quantized
0.0962226760	a series of experiments
0.0962090717	nodes in
0.0962062847	fine tuned to
0.0962055537	a convex function
0.0961945693	the inner loop
0.0961933294	3d space
0.0961861635	more rigorous
0.0961783726	the lagrangian
0.0961699982	the key technical
0.0961650126	the cost of
0.0961650126	the development of
0.0961588156	various kinds of
0.0961408424	a layer wise
0.0961408005	n ^ *
0.0961364335	an estimate of
0.0961325489	by querying
0.0961266538	the network structure
0.0961181095	a gaussian distribution
0.0961143428	a significant
0.0961016252	any given
0.0960993976	a host of
0.0960905727	out of class
0.0960885331	to add
0.0960789661	class of graphical
0.0960778756	a small dataset
0.0960727763	a novel perspective
0.0960567103	a fully differentiable
0.0960492264	x ^
0.0960410299	a particular
0.0960391011	the key insight
0.0960292586	performed via
0.0960270990	an environment
0.0960270539	formulation results in
0.0960236198	necessary conditions
0.0960172255	to specify
0.0960158130	gradient estimator for
0.0960100750	under complete
0.0960071638	decision trees with
0.0960036740	to use
0.0959987320	the training stage
0.0959981321	performance of machine learning
0.0959946183	several baselines
0.0959773930	to parallelize
0.0959742100	methods to extract
0.0959683297	not covered by
0.0959656790	the steady state
0.0959583275	capacity of
0.0959507269	the choice of
0.0959396858	commonplace in
0.0959392948	baselines in terms of
0.0959316271	impressive results in
0.0959295072	experiments on three
0.0959242636	different environments
0.0959239432	for ensuring
0.0958984177	a general algorithm
0.0958957779	the proposed approaches
0.0958947316	\ mathbb l
0.0958933777	a linear dynamical system
0.0958926230	the cross entropy
0.0958913014	generalize well across
0.0958865836	restricted by
0.0958750067	the online setting
0.0958539942	allow researchers
0.0958332271	between objects
0.0958325846	recent research on
0.0958319985	differential equations from
0.0958300739	performance over
0.0958247655	and real world problems
0.0958101434	these methods require
0.0957904272	to regress
0.0957746259	overall performance
0.0957489403	power of neural networks
0.0957470862	requires much
0.0957417457	a theoretical justification
0.0957403708	to exploit
0.0957379966	general formulation of
0.0957311258	correlation within
0.0957195664	$ type
0.0957119036	in place
0.0957081682	parameters of interest
0.0957003006	factorization for
0.0956931783	little additional
0.0956881174	these simple
0.0956709898	simplification of
0.0956663970	the centroid
0.0956527224	mixed models
0.0956518878	approaches suffer from
0.0956409242	significant differences in
0.0956354585	very wide
0.0956224696	a suite of
0.0956052927	ability of neural networks
0.0956000325	an arbitrary number of
0.0955988451	loss function for
0.0955908857	these metrics
0.0955899086	real world dataset of
0.0955816449	the high dimensional space
0.0955806804	fusion using
0.0955747114	the f measure
0.0955680572	by adopting
0.0955667771	applied to model
0.0955598257	dimensionality of data
0.0955518964	the planning horizon
0.0955369098	per dimension
0.0955311480	a comprehensive comparison
0.0955303302	complexity bound for
0.0955281967	a compact set
0.0955276739	the target class
0.0955250831	also provided
0.0955094824	a new metric
0.0955056760	the user's
0.0954878126	real world datasets with
0.0954877732	theoretical results with
0.0954849302	domains like
0.0954840449	such as 3d
0.0954817410	the last few
0.0954792927	a heavy tailed
0.0954778781	the joint optimization
0.0954765361	upper and lower bounds for
0.0954659894	bound depends on
0.0954526715	the intersection
0.0954506044	from 20
0.0954451531	investigate two
0.0954181047	emerging field of
0.0954153514	s | |
0.0954053194	to manipulate
0.0953907198	popular methods for
0.0953889951	to cope
0.0953775817	a sample efficient
0.0953672209	$ step
0.0953626659	accurate detection of
0.0953598475	method for nonlinear
0.0953569804	online learning algorithm for
0.0953560990	compare two
0.0953411407	several well known
0.0953392430	analogue to
0.0953377534	a subroutine
0.0953358425	a longstanding
0.0953247014	methods for neural
0.0953080785	training with
0.0952979199	context of reinforcement learning
0.0952945020	reasoning with
0.0952940718	100 \
0.0952865288	an np hard
0.0952714119	increase in computational
0.0952656168	predictive performance over
0.0952611252	a competition
0.0952401879	the value function
0.0952393508	a connected
0.0952363912	this type of
0.0952333141	patterns in
0.0952323837	using graph neural
0.0952185962	a requirement
0.0952173312	the m step
0.0952084063	invariance to
0.0952028189	to bring
0.0952016656	useful for
0.0951999909	a predefined
0.0951870289	$ rate
0.0951864115	sqrt k
0.0951788044	distributed among
0.0951726414	in online social networks
0.0951633671	the model size
0.0951619562	nash equilibrium of
0.0951545125	learns from
0.0951537966	neural network model with
0.0951529483	an outlier
0.0951396935	then extend
0.0951152566	a new algorithm
0.0951147565	the error probability
0.0951134801	robust variant of
0.0951076113	a budget constraint
0.0951073344	a part
0.0951065110	framework allows
0.0951038359	without accuracy loss
0.0950986484	new methods
0.0950928028	a logarithmic
0.0950923582	information to predict
0.0950821675	orthogonal to
0.0950775492	seven real
0.0950601128	on four real world
0.0950579007	approach builds on
0.0950535647	no more
0.0950416564	the time horizon
0.0950267438	inference procedures for
0.0950151936	threshold for
0.0950101381	no systematic
0.0950094411	to achieve high accuracy
0.0950086855	method to deal
0.0950036369	delineation of
0.0950010001	propose three
0.0950005138	performance compared to state of
0.0949934818	m \ ll n
0.0949904976	and extensively
0.0949859294	an upper
0.0949811125	inferred by
0.0949762634	branch of
0.0949736636	in multi label learning
0.0949656844	this observation
0.0949610795	experiments with
0.0949598817	$ estimator
0.0949590403	large pool of
0.0949517293	applications in
0.0949376978	significantly different
0.0949349196	performance of sgd
0.0949330853	second order method
0.0949321566	a common approach
0.0948986566	the character
0.0948934225	between vertices
0.0948922723	\ partial
0.0948889029	\ cal d
0.0948862297	the earth mover's
0.0948847679	techniques from
0.0948767066	empirical performance of
0.0948745738	able to outperform
0.0948732764	an energy
0.0948661933	a co
0.0948612255	preservation of
0.0948611979	more suitable
0.0948552594	deep learning approaches for
0.0948516437	utilized for
0.0948417492	into low dimensional
0.0948249927	three orders of magnitude
0.0948202095	spectral methods for
0.0948163428	exploited to
0.0948148599	t distribution
0.0948144012	exploration of
0.0948134860	the adversary's
0.0948053861	model for data
0.0947964033	accurate approximation of
0.0947947056	well as
0.0947941958	the celeba dataset
0.0947912887	to gain insights
0.0947857176	decline in
0.0947691958	a curve
0.0947686119	automated design of
0.0947644173	vary from
0.0947411925	twice as
0.0947394018	$ 12
0.0947376600	the expert's
0.0947308773	learning with neural
0.0947258474	the physiological
0.0947251349	still missing
0.0947040830	aimed to
0.0946929661	spirit of
0.0946769467	$ p n \
0.0946672019	subtypes of
0.0946633863	achieve near
0.0946588686	concatenation of
0.0946558205	encouraged to
0.0946465701	convolutional neural networks on
0.0946437305	a significant speedup
0.0946245697	ranked by
0.0946205836	a higher level
0.0946201611	the area under
0.0946142769	make progress
0.0946094942	n n
0.0946050263	networks with general
0.0945936924	also briefly
0.0945906591	provably better
0.0945886273	in multi agent reinforcement
0.0945851376	a definition
0.0945765124	predictions based on
0.0945745588	both linear and non linear
0.0945565955	foundations for
0.0945485255	the classifier's
0.0945210048	a wide variety of applications
0.0945023237	based on existing
0.0944899341	estimated at
0.0944607264	this intuition
0.0944567929	an over complete
0.0944513826	these insights
0.0944500221	such predictions
0.0944469310	increasing attention in
0.0944466802	albeit with
0.0944461009	the advent of
0.0944457458	the generalisation
0.0944387157	to transmit
0.0944332478	to craft adversarial
0.0944329468	does not change
0.0944301044	computational complexity of
0.0944275276	typically not
0.0944189085	by decoupling
0.0944094220	= d
0.0944061386	growing set of
0.0944014542	propose to perform
0.0943941730	techniques for training
0.0943902126	local neighborhood of
0.0943870615	the number of arms
0.0943585214	fewer number of
0.0943542486	generative models for
0.0943523529	the following question
0.0943492069	asymptotic optimality of
0.0943407543	the sinkhorn algorithm
0.0943370774	different clusters
0.0943350642	a classifier
0.0943342988	score of
0.0943267293	proposed in
0.0943225659	compared to other state of
0.0943153233	the duality
0.0943109730	the fisher information
0.0943090131	large portion of
0.0943023935	the categorical
0.0942992917	the optimization process
0.0942960160	the communication overhead
0.0942707065	the bethe approximation
0.0942639089	to fit
0.0942590452	each unit
0.0942574254	a predetermined
0.0942560817	each tree
0.0942560679	factor of
0.0942421085	p +
0.0942282320	a human expert
0.0942273900	the design space
0.0942171873	a third party
0.0942127966	logarithmically on
0.0942059083	via online
0.0941969246	procedure for learning
0.0941829000	applied in
0.0941735317	two nodes
0.0941650126	the efficiency of
0.0941604732	the number of classes
0.0941559351	assuming only
0.0941441249	y \ in \ mathbb r
0.0941406124	learning with random
0.0941400532	by using
0.0941398056	complex nature of
0.0941116892	the movie
0.0941099118	$ 2 ^
0.0941093639	promising direction for
0.0941045071	problems in
0.0940885055	i = 1 ^
0.0940866199	previous work on
0.0940794635	\ pi ^
0.0940781227	the underlying causal
0.0940727031	the bad
0.0940683962	ranges of
0.0940646287	a continuous time
0.0940599726	derives from
0.0940596916	a single sample
0.0940593386	this assumption
0.0940574124	a count
0.0940465521	the output weights
0.0940453940	a stylized
0.0940220887	100 and imagenet
0.0940168657	a position
0.0940117147	important tool for
0.0940010012	$ 8
0.0939978888	in depth study
0.0939956268	the balanced
0.0939937598	subgroups of
0.0939925328	comparison among
0.0939892731	approximation factor of
0.0939859986	the proposed estimators
0.0939854494	synthetic and real world datasets show
0.0939786766	the algorithm
0.0939767161	data with high
0.0939750827	performance of kernel
0.0939735464	a deep understanding
0.0939719562	performance of deep neural
0.0939643684	$ gan
0.0939641062	a k
0.0939631298	small amount of data
0.0939600222	snapshot of
0.0939453458	^ * +
0.0939355274	the rest
0.0939101596	introduced to
0.0939100027	$ 1 \ sqrt
0.0939071948	for detecting anomalies
0.0939038042	to decompose
0.0938795626	inputs into
0.0938698917	to supervise
0.0938586103	effective against
0.0938396682	existing literature on
0.0938395324	the last years
0.0938315506	the johnson
0.0938269428	^ 3 \
0.0937912770	a decomposition
0.0937900604	$ 1 \ alpha
0.0937862995	different strategies
0.0937805806	and real world data sets
0.0937777272	these assumptions
0.0937730902	these devices
0.0937728309	uncertainty quantification of
0.0937654416	to train neural networks
0.0937625835	no spurious
0.0937623427	to modify
0.0937592133	in house
0.0937580054	with respect
0.0937568652	many fields
0.0937450528	under sampling
0.0937431130	for low dose
0.0937230063	in depth analysis
0.0937174660	expectation maximization for
0.0937113977	coverage of
0.0937099328	task of learning
0.0937072296	networks for image
0.0937048880	a semi supervised learning
0.0937023195	the spatiotemporal
0.0936996627	$ nearest neighbor
0.0936996448	a fundamental step
0.0936979511	a transfer learning
0.0936964159	change points in
0.0936849531	a finite dimensional
0.0936842735	an objective
0.0936818416	arises as
0.0936803933	two classes
0.0936789397	but none
0.0936741109	exist between
0.0936643231	practicality of
0.0936612989	an important topic
0.0936579269	independence structure of
0.0936457699	any extra
0.0936417346	the sub optimality
0.0936371579	the optimization problem
0.0936349427	on synthetic datasets
0.0936296545	modification to
0.0936222522	the environment's
0.0936179020	a standard tool
0.0936091083	dubbed as
0.0936089527	algorithms for data
0.0935834676	details of
0.0935821487	a general framework for
0.0935813943	an end to end neural
0.0935768889	the problem of recovering
0.0935692319	further enhance
0.0935686035	a frequent
0.0935571089	unified view of
0.0935484002	analysis focuses on
0.0935475965	efficiently using
0.0935456940	the impulse response
0.0935401220	performance of graph
0.0935373868	a regularized
0.0935311747	outstanding performance in
0.0935237757	a domain invariant
0.0935225271	an illustrative
0.0935223162	in low dimensions
0.0935211037	an empirical evaluation
0.0935201788	a combined
0.0935171228	philosophy of
0.0935027614	also extend
0.0935001116	performances on
0.0935001068	the stochastic gradient method
0.0934991371	brings new
0.0934973377	\ delta ^
0.0934880350	$ \ mathcal t
0.0934826021	each label
0.0934803449	thorough experiments
0.0934772961	intended for
0.0934557666	difference between two
0.0934550660	algorithm on synthetic
0.0934334231	prediction time
0.0934322268	the system's
0.0934309405	efficient methods for
0.0934207084	anomalies in
0.0934189085	an enormous
0.0933751501	the proximal operator
0.0933725471	problem of determining
0.0933642441	usually considered
0.0933638507	proves to
0.0933637696	analysis of stochastic
0.0933591083	enriched with
0.0933561121	implemented with
0.0933544916	the shelf machine
0.0933483547	at scale
0.0933475832	u ^
0.0933370552	tasks sampled from
0.0933347020	number of training
0.0933316606	performance improvements over
0.0933257170	particular importance
0.0933183116	modeling time
0.0933150969	complementary to
0.0933145367	application to real
0.0933050077	the p
0.0932710329	a temperature
0.0932688177	different subjects
0.0932654028	with non linear
0.0932641009	source of
0.0932536251	learning from positive and unlabeled
0.0932512983	in addition to
0.0932499273	the input text
0.0932455459	key challenge in
0.0932412708	first polynomial time algorithm
0.0932411177	built into
0.0932406741	leading cause
0.0932309609	latent representations of
0.0932148065	imperative to
0.0932103469	number of interactions
0.0932064967	a critical challenge
0.0931985142	limited time
0.0931941037	a penalized likelihood
0.0931914732	solely from
0.0931898245	data at hand
0.0931805416	a simulated environment
0.0931761086	extends to
0.0931742767	further improve
0.0931681781	solutions for
0.0931602926	underpinnings of
0.0931468046	order to learn
0.0931448673	modern computer
0.0931372135	3d convolutional neural
0.0931351042	three ways
0.0931275119	an improvement
0.0931244565	problem with
0.0931196528	* \ in \ mathbb
0.0931167343	types of information
0.0931110636	performance benefits of
0.0931083085	diversity between
0.0931046359	least squares method
0.0931009696	field of
0.0931001744	neural models
0.0930919654	a firm
0.0930916222	posterior sampling for
0.0930733773	the loss surface
0.0930638830	schemes for
0.0930616624	a guideline
0.0930598402	and numerically
0.0930491251	partitions of
0.0930488643	progress on
0.0930474917	a crucial step
0.0930423512	a min max
0.0930394466	a pac bayes
0.0930264914	theoretical framework for
0.0930261091	principles of
0.0930169441	risk bound for
0.0930106779	not readily
0.0930077120	to propagate
0.0930065560	currently popular
0.0929966143	each one of
0.0929900649	fully connected and
0.0929898134	work investigates
0.0929793786	\ | x
0.0929772961	opportunity for
0.0929699751	trade off between model
0.0929674597	millions of data
0.0929649707	identify whether
0.0929387030	becomes challenging
0.0929324930	competitive performance with
0.0929243318	the two networks
0.0929166891	in combination with
0.0929122798	driven discovery of
0.0929101916	pre training with
0.0929045925	while reducing
0.0929043993	a piecewise constant
0.0929038686	the present work
0.0929038042	a viable
0.0929031881	a small set
0.0929018836	patterns in data
0.0928958964	minimum mean
0.0928886029	an essential task
0.0928796352	on synthetic and real data
0.0928714332	several extensions
0.0928694402	following contributions
0.0928632899	composition of
0.0928514268	by alternating between
0.0928473293	information as possible
0.0928443477	good approximations
0.0928313678	a finite number
0.0928308858	train time
0.0928304811	the well known
0.0928127022	gradient descent algorithms for
0.0928116885	occurs in
0.0927996119	approximation properties of
0.0927962042	includes several
0.0927925071	a combination of
0.0927814591	k \ leq
0.0927777667	the tuh
0.0927690880	an explosion
0.0927660887	the generalization error
0.0927604307	a proper
0.0927377335	1 \
0.0927315775	further boost
0.0927276890	class of stochastic
0.0927236238	some limitations
0.0927228472	only logarithmic
0.0927188321	the causality
0.0927165346	order to account for
0.0927111229	a constant
0.0927110438	roots in
0.0927027586	words in
0.0927026756	building block of
0.0927023195	the coupling
0.0927022775	in many situations
0.0926987303	very important
0.0926983597	novel image
0.0926856057	a non trivial
0.0926796692	in many domains
0.0926638424	solution for
0.0926440597	to bypass
0.0926439371	method with
0.0926405887	evaluated in terms
0.0926351466	without increasing
0.0926174525	graph neural networks for
0.0926136671	a fully
0.0925957373	a python library
0.0925890568	more powerful than
0.0925858050	all tasks
0.0925752823	the true label
0.0925722387	to replace
0.0925665493	to mimic
0.0925509833	the original graph
0.0925428636	3 +
0.0925396612	a scoring function
0.0925395276	by developing
0.0925336161	convergence rate under
0.0925310553	the art systems
0.0925210086	used to evaluate
0.0925190726	the social sciences
0.0925187517	both white box
0.0925171650	snapshots of
0.0925164266	suitability of
0.0925045684	mappings from
0.0924997934	the contemporary
0.0924906029	a clinical trial
0.0924888952	often referred
0.0924828521	to provide
0.0924816848	subsamples of
0.0924738449	expressiveness of
0.0924717700	three steps
0.0924686709	specific form of
0.0924631791	by establishing
0.0924610332	two random variables
0.0924544638	in wall clock time
0.0924473641	deep learning architecture for
0.0924409235	on cifar 10 and cifar 100
0.0924369620	a sparse matrix
0.0924244692	a setup
0.0924189738	constant number of
0.0924142010	$ o \ big
0.0924038686	the most widely used
0.0923935351	learning to train
0.0923884089	reached by
0.0923727414	time sequence
0.0923650355	an imperfect
0.0923645653	calibration of
0.0923514138	data such as images
0.0923328388	by compressing
0.0923159989	standard tool for
0.0923098960	to segment
0.0923078439	a review on
0.0922978170	not need
0.0922975821	common types of
0.0922968980	a stronger
0.0922946207	rise to
0.0922876955	the generative model
0.0922853411	a novel deep learning based
0.0922745288	useful information
0.0922616542	a machine learning system
0.0922589871	a lot of interest
0.0922574223	attacks on deep
0.0922562159	to quickly identify
0.0922552696	the adaptivity
0.0922491198	examples from
0.0922409018	t =
0.0922280011	a promising tool
0.0922272961	stored on
0.0922272289	some numerical experiments
0.0922260622	with warm
0.0922259721	linear regions of
0.0922115986	an adversarial example
0.0922097312	experiments on two
0.0922056545	true even
0.0921993124	for real world applications
0.0921752169	a global
0.0921626729	even more challenging
0.0921620471	interpreted by
0.0921483350	a few lines of
0.0921427852	\ leq p
0.0921272020	by fine tuning
0.0921169509	first class
0.0921113176	formulas for
0.0921084315	equal or
0.0920999986	two seemingly
0.0920898901	$ 30
0.0920891370	to noise ratio
0.0920818079	the closed loop
0.0920792040	different clients
0.0920775947	framework to generate
0.0920716173	an end to end deep learning
0.0920669506	both cases
0.0920620437	a neural architecture search
0.0920615344	two questions
0.0920403004	using side information
0.0920341575	the heterogeneity
0.0920316236	major challenges in
0.0920285715	some basic
0.0920161596	an inexpensive
0.0920050588	better policies
0.0920048280	the trace
0.0920035876	generative adversarial networks for
0.0920032280	estimation method for
0.0919940227	favourably with
0.0919851512	potential to significantly
0.0919825100	g \
0.0919779581	an end to end learning
0.0919718053	consequences for
0.0919716109	self attention for
0.0919710441	in accordance
0.0919709392	to combine multiple
0.0919708219	used to create
0.0919666148	a balance
0.0919588686	implication of
0.0919561649	algorithm to approximate
0.0919541804	also provide theoretical
0.0919480530	the true prior
0.0919420670	non asymptotic bounds on
0.0919336616	an application to
0.0919259224	the multilevel
0.0919256874	the normalization
0.0919228520	experimental evaluation on
0.0919175627	extension to
0.0919078700	popular class of
0.0919078054	system performance
0.0918996154	interest in recent years
0.0918916812	a neural network's
0.0918863848	less parameters
0.0918863321	any finite
0.0918788933	adversarial examples for
0.0918775381	and real life data
0.0918502357	appropriate assumptions
0.0918485774	the true causal
0.0918472952	drawbacks of
0.0918454232	placement of
0.0918433136	linear function of
0.0918253112	introduced in
0.0918119567	order to solve
0.0917942085	the precision recall
0.0917843031	the output
0.0917804365	neural network trained on
0.0917610889	with 100
0.0917524663	stands for
0.0917481134	the human connectome
0.0917352412	the problem size
0.0917193953	both discrete and continuous
0.0917183374	a large variety
0.0917102744	help reduce
0.0917087751	learning to detect
0.0917030728	occurring in
0.0916977290	a moment matching
0.0916952876	\ leq k
0.0916939392	an approximation
0.0916823129	case studies on
0.0916785106	methods on
0.0916682236	many important problems
0.0916658644	feature selection methods for
0.0916649383	experiments on two benchmark
0.0916627657	a guided
0.0916621973	same size
0.0916563811	the model evidence
0.0916490761	useful properties
0.0916461021	showing state of
0.0916369219	many real applications
0.0916325359	a two dimensional
0.0916303565	class of neural
0.0916139345	the dropout
0.0916137009	less noisy
0.0916084411	a cost function
0.0916029946	the actual
0.0915953308	this way
0.0915951010	the output variable
0.0915948159	larger class of
0.0915792586	provide useful
0.0915753112	presented in
0.0915699861	the strategy
0.0915608134	method to achieve
0.0915217768	the engine
0.0915063440	classification accuracy than
0.0914944097	adaption of
0.0914778955	in drug discovery
0.0914751122	by perturbing
0.0914713269	the general case
0.0914710085	for integrating
0.0914706191	still far from
0.0914644152	sparse signal from
0.0914474574	each pair of
0.0914472033	by drawing
0.0914380162	valuable for
0.0914260127	an adversarial attack
0.0914122935	the technology
0.0914048280	the seller
0.0914014735	a new measure
0.0914002313	the input distribution
0.0913978985	representation learned by
0.0913954467	by posing
0.0913928854	backpropagation algorithm for
0.0913772706	all training
0.0913695844	single sample from
0.0913694252	events in
0.0913650165	four classes
0.0913638652	7 \
0.0913439209	time series forecasting with
0.0913431327	probability at least
0.0913416404	widely used algorithm
0.0913334038	data points from
0.0913305497	sources of
0.0913299328	the received signals
0.0913225635	dimensional representation of
0.0912969607	the total number of
0.0912948088	order to capture
0.0912777381	important topic in
0.0912771763	the posterior
0.0912729954	under certain
0.0912711654	$ value
0.0912687727	various extensions
0.0912559217	a new approach to
0.0912504565	best set
0.0912404168	among many
0.0912371609	approach on
0.0912342841	critical role in
0.0912325048	to abstain
0.0912295110	tractability of
0.0912294354	produce state of
0.0912223055	especially deep learning
0.0912180984	for uplift modeling
0.0912083893	case of gaussian
0.0912074166	a novel unsupervised
0.0912067192	by creating
0.0912059433	to retain
0.0911956835	the field of machine learning
0.0911825763	new analysis
0.0911817557	tasks such as node
0.0911723444	at last
0.0911719517	proposed as
0.0911702856	a plug and play
0.0911683636	the ar
0.0911576092	progress in recent
0.0911536497	awareness of
0.0911486566	the cardinality
0.0911444670	agnostic to
0.0911248471	the explanatory
0.0911223288	learning algorithms for
0.0911104817	on mnist and cifar 10
0.0911087988	model consists of
0.0911050041	any explicit
0.0911039307	for training deep learning
0.0910985892	p \
0.0910905811	a level
0.0910875518	some applications
0.0910833946	solvers for
0.0910815271	useful tools
0.0910752866	difficulty in
0.0910746983	of magnitude fewer
0.0910739880	for machine learning based
0.0910709574	any arbitrary
0.0910663824	frameworks such as
0.0910609666	the exploration exploitation
0.0910513112	based on sample
0.0910449808	over sampling
0.0910283494	the search process
0.0910251007	a convolutional neural
0.0910247056	comparison to
0.0910117616	range of parameters
0.0910113114	a quadratic function
0.0910041569	dataset with
0.0910035288	$ point
0.0910028273	prediction intervals for
0.0909986792	the approximation error
0.0909950587	not at random
0.0909862099	allows users
0.0909706137	create new
0.0909693043	deep neural network with
0.0909618795	true value
0.0909608711	three components
0.0909522552	many recent works
0.0909515217	the back propagation algorithm
0.0909444222	a simple way
0.0909443998	those using
0.0909303164	leakage of
0.0909141456	call \ emph
0.0909088990	class of data
0.0909039492	regularization effect of
0.0909028507	theories of
0.0909027586	errors in
0.0909013218	under different conditions
0.0908978318	inference on
0.0908940597	to decode
0.0908721500	on two benchmark datasets
0.0908707913	to extrapolate
0.0908694151	further improvement
0.0908671329	these phenomena
0.0908656220	comprehensive analysis of
0.0908567068	question about
0.0908543436	competitively on
0.0908519906	z \
0.0908443110	the characteristic
0.0908397829	class of probabilistic models
0.0908363593	remarkable performance in
0.0908356089	to define
0.0908246395	shows state of
0.0908107264	to organize
0.0908105208	represented using
0.0908048751	by investigating
0.0907961901	deployed in real
0.0907959124	recourse to
0.0907843031	the user
0.0907809104	the long standing
0.0907787863	the random walk
0.0907736029	the rapid growth
0.0907683021	this dilemma
0.0907607144	robustness of neural
0.0907587687	automatically find
0.0907582008	an extremely
0.0907575878	by simulating
0.0907532895	available at \ url
0.0907466208	through careful
0.0907448917	to reconcile
0.0907442533	of people
0.0907431009	set of measurements
0.0907307023	from multiple views
0.0907305221	operates in
0.0907254732	some special
0.0907218053	annotated with
0.0907164244	any other
0.0907117098	reliability of
0.0907041583	the observed variables
0.0907035641	a global model
0.0906860662	several aspects
0.0906807701	increasing complexity of
0.0906778989	efficient training of
0.0906769467	$ x ^ \
0.0906759215	contrast to
0.0906732378	loss with respect
0.0906579232	acceptance of
0.0906488836	the variance of
0.0906468934	the extracted features
0.0906439007	non linear dimensionality
0.0906354199	first order gradient
0.0906314001	decisions based on
0.0906239310	for graph representation learning
0.0906224872	frontier of
0.0906139654	a test
0.0906082776	among groups
0.0906013946	$ close
0.0905939384	a recent surge
0.0905897424	gaussian processes with
0.0905838322	the number of nodes
0.0905706741	performance on multiple
0.0905686210	the next layer
0.0905587570	the final decision
0.0905518807	two kinds
0.0905437693	an optimization based
0.0905376466	convex ones
0.0905376085	0,1 \
0.0905303007	training of
0.0905297015	$ |
0.0905261856	a shared latent
0.0905242767	more effectively
0.0905242363	a larger number
0.0905120471	to determine whether
0.0905112062	$ h \
0.0905108290	without loss of accuracy
0.0905070462	generalization guarantees for
0.0905059433	to track
0.0905058955	occurs in many
0.0905022751	the low rank structure
0.0904982483	go on to
0.0904848956	certain sense
0.0904743723	these definitions
0.0904714671	able to reproduce
0.0904690249	demonstrated using
0.0904678647	mainly due
0.0904584477	equality of
0.0904525981	a well known
0.0904448652	the primary
0.0904447860	the hidden state
0.0904408022	a spectrum
0.0904357010	inspection of
0.0904318416	unrelated to
0.0904284171	not even
0.0904205566	in expectation
0.0904181937	more direct
0.0904105803	the concrete
0.0904101416	each update
0.0903946678	a crucial component
0.0903905284	performance of online
0.0903902100	a near optimal policy
0.0903878224	preferable to
0.0903751920	the open
0.0903668692	x \ in \ mathbb r
0.0903665844	to extract features
0.0903663744	sub graph
0.0903648047	directly on
0.0903535533	the graph
0.0903480138	visualization of
0.0903376488	idea of
0.0903339575	roots of
0.0903174857	efficient way
0.0903163084	informative than
0.0903100520	method to construct
0.0903070122	in clinical settings
0.0903029764	loss of
0.0903013068	more challenging problem
0.0902995815	model to detect
0.0902994692	the economic
0.0902862030	the underlying process
0.0902821114	an influential
0.0902813431	the meantime
0.0902777224	probabilities by
0.0902717768	the exchange
0.0902680584	learning to
0.0902671669	clustering algorithm for
0.0902641712	the input vector
0.0902608604	the real world data
0.0902557684	investigate if
0.0902501954	techniques based on
0.0902441963	a sparsity constraint
0.0902416905	published at
0.0902406699	the art algorithm
0.0902335983	panel of
0.0902331760	because of
0.0902175033	illustrated in
0.0902152378	function subject to
0.0902055951	used to solve
0.0902026592	a generic framework
0.0901996591	observations about
0.0901969643	used to represent
0.0901884392	a framework
0.0901855199	collection of data
0.0901853957	continuity of
0.0901810985	much more efficient than
0.0901809939	$ 10 ^
0.0901787917	either explicitly
0.0901764761	of particles
0.0901639536	similar performance to
0.0901578780	exactly to
0.0901566032	tasks such as clustering
0.0901498905	in conjunction with
0.0901496702	the euclidean norm
0.0901389957	for distributed machine learning
0.0901283660	the simplified
0.0901213688	a finite mixture
0.0901031215	back to
0.0900881018	significant attention from
0.0900789504	stochastic nature of
0.0900736347	evaluation metrics for
0.0900719860	to disentangle
0.0900716085	information content of
0.0900676785	recovery using
0.0900675364	useful tool
0.0900645138	observations from
0.0900635078	comparably to
0.0900631842	performance guarantees for
0.0900613323	weaknesses of
0.0900529214	for model based reinforcement
0.0900491179	on several benchmark
0.0900425428	includes many
0.0900381132	benchmarks show
0.0900348513	for least squares
0.0900281388	offer better
0.0900172585	in real world problems
0.0900160508	able to generalize
0.0900071806	a random vector
0.0899980924	into blocks
0.0899862008	identifiability of
0.0899808146	learn directly from
0.0899701285	end to end learning of
0.0899694855	a person
0.0899683813	paradigm for
0.0899657890	collected through
0.0899621829	an alternating minimization
0.0899566513	$ y ^
0.0899526118	vary over
0.0899461448	the art machine
0.0899436944	only partially
0.0899332804	the lens of
0.0899295551	an important technique
0.0899230358	structure learning of
0.0899101409	exploited for
0.0899018510	the art neural network
0.0899015836	algorithms to compute
0.0898950150	a stochastic gradient descent
0.0898896080	certain groups
0.0898841984	estimations of
0.0898759765	number of inputs
0.0898757432	more general setting
0.0898715975	important properties of
0.0898714550	set of data
0.0898708418	theoretical work
0.0898636366	applied to large
0.0898505173	unified analysis of
0.0898459201	the nonlinearity
0.0898421947	more traditional
0.0898399705	$ laplacian
0.0898378593	approach to machine
0.0898311738	these concerns
0.0898311635	several ways
0.0898282877	iterative method for
0.0898268263	sufficient for
0.0898195178	wide applications in
0.0898155965	to succeed
0.0898099599	$ \ mathbb s ^
0.0897940246	information among
0.0897926504	an effective technique
0.0897907049	confidence sets for
0.0897810010	very popular
0.0897789111	a directed graph
0.0897681475	to broaden
0.0897602719	without prior knowledge
0.0897583571	operate at
0.0897569531	appropriate conditions
0.0897568238	the gram matrix
0.0897450776	sub optimal local
0.0897448746	$ \ boldsymbol x
0.0897305497	utility of
0.0897168275	the presented method
0.0897098103	of 12
0.0896995319	quantities such as
0.0896834772	in real world systems
0.0896789937	+ \
0.0896730417	self supervised representation
0.0896715216	verification of
0.0896708746	order to estimate
0.0896506686	and social sciences
0.0896395108	classes of data
0.0896390744	the optimal action
0.0896352023	tools like
0.0896333291	now widely
0.0896264330	high degree of
0.0896250320	number of attributes
0.0896191137	the reader
0.0896172695	the sdp
0.0896143710	method to overcome
0.0896139010	more capable
0.0896105096	the learned
0.0896014323	p ^
0.0895986892	detection on
0.0895876565	versatility of
0.0895864133	the univariate
0.0895843758	less than 3
0.0895759041	the missing entries
0.0895741185	$ pac
0.0895725914	image reconstruction from
0.0895631181	computationally very
0.0895627893	less important
0.0895558697	able to explain
0.0895557985	often difficult
0.0895516526	with long short term
0.0895280162	aid in
0.0895278144	experiments on datasets
0.0895240524	with as few
0.0895191958	a retrieval
0.0895191958	the learnable
0.0895066175	in multi class classification
0.0895026381	mostly in
0.0894728845	the power law
0.0894599753	existing results in
0.0894583637	convexity of
0.0894396299	the art methods in terms
0.0894363782	same architecture
0.0894340734	the minimum norm
0.0894333590	good representations
0.0894316062	used to quantify
0.0894281537	a large class
0.0894268242	a test set
0.0894246296	towards developing
0.0894199567	advances in generative
0.0893891182	on graphs
0.0893709115	adaptation for
0.0893697636	forced to
0.0893648390	theoretical bounds on
0.0893610337	by reducing
0.0893547914	properties of random
0.0893475532	the art architectures
0.0893432531	quite high
0.0893401568	stable across
0.0893326812	$ y \ in \
0.0893312601	over 30
0.0893255746	to make decisions
0.0893205076	domains such as
0.0893169085	first step
0.0893052787	different configurations
0.0892835586	based on sampling
0.0892808715	$ \ max
0.0892802099	a two layer neural network
0.0892771875	burden on
0.0892717077	most salient
0.0892659649	a novel representation
0.0892591024	a well trained
0.0892570937	the model's behavior
0.0892565112	limited amount of
0.0892513823	the number of iterations
0.0892473121	a convolutional
0.0892454624	a given task
0.0892400519	improved performance in
0.0892346037	a wide spectrum of
0.0892254927	research towards
0.0892185962	to trust
0.0892109212	the interference
0.0892073210	further improves
0.0891916707	several limitations
0.0891762870	depend only
0.0891681671	$ bit
0.0891648294	q learning with
0.0891521386	pre processing of
0.0891521188	the autonomous
0.0891512118	aim to find
0.0891501132	an algebraic
0.0891377397	$ i.i.d
0.0891340306	three datasets
0.0891271227	the true class
0.0891261247	exponentially more
0.0891143971	on 8
0.0890992924	logistic regression for
0.0890959711	performs as well
0.0890955436	the lower level
0.0890900754	data generated by
0.0890877679	by 7
0.0890863286	an extensive evaluation
0.0890858485	the hidden layer
0.0890822087	growing need
0.0890779711	an individual
0.0890708849	an embedding space
0.0890703142	four main
0.0890689668	2 \ sqrt
0.0890607870	information theoretic framework for
0.0890574124	the array
0.0890533776	disadvantage of
0.0890530858	problem of clustering
0.0890497777	conservation of
0.0890291693	different users
0.0890245132	model to extract
0.0890091246	option for
0.0890007689	the vc dimension
0.0889923970	the testing phase
0.0889773930	a fresh
0.0889742336	optimize over
0.0889721675	configurations of
0.0889717182	same order
0.0889454421	broad set of
0.0889429320	from text
0.0889413463	the current literature
0.0889392355	to revisit
0.0889319256	robust enough to
0.0889191937	in part because
0.0889156308	a new challenge
0.0889079702	applications such as online
0.0888945491	by correcting
0.0888904089	desiderata for
0.0888842895	both synthetic
0.0888792762	the model performance
0.0888734311	significant interest
0.0888709931	set of samples
0.0888656041	the internet of things
0.0888498510	this fact
0.0888407612	non robustness
0.0888320312	several appealing
0.0888307752	than ever
0.0888196615	particularly interested in
0.0888161826	variables of interest
0.0888161816	among individuals
0.0888041089	conduct experiments with
0.0888025326	diverse range of
0.0888022157	different behaviors
0.0888008651	periods of
0.0887959124	basin of
0.0887824961	excellent performance in
0.0887701745	weighted average of
0.0887691958	the affine
0.0887668592	so much
0.0887629338	resource allocation for
0.0887619412	to leverage
0.0887520562	as possible
0.0887485227	difficult to find
0.0887481153	based on principal
0.0887458735	relative to state of
0.0887439427	a specific class
0.0887334936	the recent past
0.0887315749	a post processing
0.0887261988	difficult due to
0.0887252761	some real world
0.0887175905	three groups
0.0887088232	optimal number of
0.0887087970	applicable for
0.0887082243	to link
0.0887018553	the same level of
0.0886975971	while enforcing
0.0886890277	learnt from
0.0886862524	present results on
0.0886844359	cons of
0.0886670786	log m
0.0886643279	by reusing
0.0886498893	m +
0.0886470750	the art feature selection
0.0886333540	a safety
0.0886248149	a simple and effective
0.0886195308	approaches such as
0.0886080054	to deal
0.0886035960	a variety of real world
0.0885985405	the original high dimensional
0.0885910387	link prediction in
0.0885871547	row or
0.0885861566	art methods based on
0.0885704190	most powerful
0.0885544674	convergence analysis for
0.0885515558	the hyper parameters
0.0885462835	the attacker's
0.0885405774	r code
0.0885315637	the availability
0.0885286782	provides insight
0.0885266101	averages of
0.0884953857	the latent codes
0.0884946201	the maximum likelihood
0.0884847223	optimized using
0.0884800345	three parts
0.0884638189	leading to better
0.0884620055	and accurately
0.0884580953	candidates for
0.0884497889	a detailed
0.0884358756	2 +
0.0884239432	the unfairness
0.0884140009	existing work on
0.0884114335	number of noisy
0.0884114149	with limited resources
0.0884038109	understood by
0.0884023828	\ mathcal r
0.0884002555	the tabular
0.0883997056	flexibility of
0.0883921873	the covariate shift
0.0883906330	further discuss
0.0883808896	a novel supervised
0.0883791032	any manual
0.0883706968	the mode collapse
0.0883586499	the art models
0.0883501739	useful representations
0.0883482722	framework to identify
0.0883461273	possibilities for
0.0883451558	as needed
0.0883368866	fine tuning on
0.0883258329	$ \ mathcal v
0.0883220323	the shrinkage
0.0883130356	deep learning based on
0.0883024746	class of random
0.0882951103	federated learning with
0.0882913831	the possibility
0.0882893089	explore several
0.0882886427	networks with one hidden
0.0882755851	other adaptive
0.0882668390	the final prediction
0.0882605137	an end to end deep
0.0882390739	more severe
0.0882326365	desirable to
0.0882272031	the expected error
0.0882255121	pre trained with
0.0882251739	novel insights
0.0882250827	analysis of complex
0.0882230049	any differentiable
0.0882180795	the rise of deep learning
0.0882122499	to improve robustness
0.0882100986	best case
0.0882004573	meta learning for
0.0881912850	many features
0.0881780076	^ 2 \ epsilon ^
0.0881765111	function over
0.0881672269	different channels
0.0881582410	sampling strategy for
0.0881490002	number of methods
0.0881436703	a likelihood
0.0881381247	set of observed
0.0881238439	$ t ^ 2
0.0881160704	all information
0.0881143428	to measure
0.0881134693	feedback from
0.0881121571	from electronic health
0.0881075636	a finite
0.0881070009	an infinitely
0.0880987651	general classes of
0.0880971120	a clear
0.0880823053	\ gamma \ in
0.0880765824	a robust policy
0.0880628104	prior work on
0.0880600034	advantages compared to
0.0880579427	a powerful tool for
0.0880417712	important to
0.0880409212	a scalar
0.0880280533	also imply
0.0880191958	the vulnerability
0.0880132244	the upper confidence bound
0.0880062819	the true model
0.0879951821	a response variable
0.0879833043	further verify
0.0879814387	providing better
0.0879760008	procedures for
0.0879708048	the redundancy
0.0879680842	a discretization
0.0879614718	^ \
0.0879559795	first trains
0.0879497052	flexible framework for
0.0879478159	the data space
0.0879447667	the optimal regret
0.0879422363	number of positive
0.0879396351	work develops
0.0879301413	this geometric
0.0879296524	order to optimize
0.0879224043	a stochastic block model
0.0879126495	a linear combination of
0.0879056443	the teaching
0.0879054899	insight on
0.0879026666	the anatomical
0.0879026188	post processing of
0.0878947133	in mind
0.0878913541	to escape
0.0878881720	an indirect
0.0878773464	identifiable from
0.0878567523	for solving
0.0878542656	the server
0.0878493641	real world data with
0.0878316509	a uniform distribution
0.0878304285	as expected
0.0878152530	still poorly
0.0878039001	possible outcomes
0.0878016138	a smart
0.0877959626	geometric features of
0.0877941958	the industrial
0.0877867100	evaluation on
0.0877787762	a strong
0.0877750206	the agent learns
0.0877691958	the homogeneous
0.0877591095	also prove
0.0877575667	few shot learning with
0.0877561415	full potential
0.0877554860	estimated through
0.0877418629	contrast to existing
0.0877352910	a benefit
0.0877132269	interest in developing
0.0877077040	also observe
0.0877066906	across diverse
0.0877055497	polynomial in
0.0877039559	the 3d
0.0877010815	m \ log
0.0876941335	advantages over other
0.0876767064	numerical models
0.0876738032	an intractable
0.0876560945	a single vector
0.0876555821	model with high
0.0876550611	at equilibrium
0.0876462378	reinforcement learning approach for
0.0876451109	good initial
0.0876322632	this claim
0.0876292645	internet of
0.0876287820	not seen during
0.0876250839	by adapting
0.0876204498	method for multi
0.0876160830	still challenging
0.0876141236	modeling of
0.0876121782	the pose
0.0876085170	of rare events
0.0876034338	with high
0.0875989516	tweets from
0.0875932625	identification in
0.0875912084	the hospital
0.0875900660	those nodes
0.0875858625	the favorable
0.0875788782	predicted from
0.0875781588	a real life
0.0875551236	the urban
0.0875524540	thus requiring
0.0875427155	order to obtain
0.0875402354	this project
0.0875365740	the skill
0.0875229954	also give
0.0875197880	model to identify
0.0875162838	three factors
0.0875125571	a smooth function
0.0875057762	many ways
0.0875043231	acting in
0.0875016963	computed on
0.0875011045	optimal strategy for
0.0874951236	the hope
0.0874951013	the achieved
0.0874916574	equivalence classes of
0.0874882253	indispensable for
0.0874796806	theorem for
0.0874795493	gradients through
0.0874792377	an unsupervised setting
0.0874786442	a discriminative
0.0874784400	compared to related
0.0874779213	the key
0.0874766433	learning methods based on
0.0874751561	to share
0.0874733495	learned during
0.0874655876	the contrastive
0.0874590049	result from
0.0874548965	the era of big data
0.0874488704	the final model
0.0874433971	several state of
0.0874176319	$ node
0.0874018484	several attempts
0.0873945684	adapted from
0.0873913409	images into
0.0873874161	with one hidden layer
0.0873776965	a custom
0.0873691570	approach on two
0.0873657551	challenging case of
0.0873636068	performance of classifiers
0.0873632156	four popular
0.0873385559	new approaches
0.0873373307	a large corpus
0.0873355813	testing time
0.0873320041	deep learning techniques for
0.0873156456	the optimal decision
0.0873129185	also present
0.0872906681	the gaussian mixture
0.0872880573	practical applicability of
0.0872865740	the separability
0.0872775874	number of tests
0.0872730309	the unknown matrix
0.0872666638	two decades
0.0872611297	simply by
0.0872559217	the benefits of
0.0872522768	encountered by
0.0872460978	the labelling
0.0872436847	through simulations
0.0872411913	inference in graphical models
0.0872398525	both sample
0.0872295892	the maximum mean discrepancy
0.0872220987	based time series
0.0872203670	significant role in
0.0872125313	the existing literature
0.0872018484	without extra
0.0871957589	active area of
0.0871955648	each weight
0.0871939008	the f1 score
0.0871878833	the learned policy
0.0871824733	the expected total
0.0871771188	the principle
0.0871749360	posterior over
0.0871671945	distributed implementation of
0.0871650126	the ability of
0.0871641948	trained on large
0.0871633661	perform very
0.0871612570	the hinge loss
0.0871552646	measure for
0.0871482719	the pareto front
0.0871130575	approach to feature
0.0871111226	meta algorithm for
0.0871081525	regression problem with
0.0871072992	computational framework for
0.0871020551	t \ log
0.0871020346	a formidable
0.0870992736	these constraints
0.0870944233	detection with
0.0870756108	able to produce
0.0870738689	bounds for multi
0.0870725628	the face of uncertainty
0.0870725167	exponential in
0.0870664781	a multi resolution
0.0870658858	generates new
0.0870604448	to semi supervised learning
0.0870590113	a momentum
0.0870531825	with random initialization
0.0870497777	sections of
0.0870398568	the uci machine
0.0870320119	several popular
0.0870254998	in classifying
0.0870252853	polynomial time algorithms for
0.0870223065	a master
0.0870172827	based on differential
0.0870167656	by exchanging
0.0870164236	efficiency compared to
0.0870122935	the advanced
0.0870098242	these tools
0.0870063294	faster compared to
0.0870056478	the indices
0.0870038060	several numerical
0.0870026810	* +
0.0869910044	to steer
0.0869895495	set of discrete
0.0869765846	in terms of accuracy
0.0869732013	a model's
0.0869374940	contextual bandit with
0.0869358625	a sampled
0.0869332216	a brand new
0.0869330873	tuned to
0.0869257231	the target matrix
0.0869214730	tutorial on
0.0869204613	a stochastic process
0.0869163236	the grouping
0.0869131209	model to classify
0.0869112133	the sheer
0.0869074296	the features of
0.0869056443	the biomedical
0.0869019544	from different classes
0.0868926669	from demonstrations
0.0868830873	relaxations of
0.0868811414	the top 1
0.0868791124	conceptually simple and
0.0868789809	arises due to
0.0868702351	between data points
0.0868682171	in order to extract
0.0868580781	to large scale data
0.0868504095	received by
0.0868484262	\ times m
0.0868473919	in training neural networks
0.0868394060	a prescribed
0.0868393980	new formulation
0.0868365998	in doing so
0.0868360830	various baselines
0.0868339298	these gaps
0.0868337174	global optimality of
0.0868313300	estimates for
0.0868296868	promising method for
0.0868243550	the minimax rate
0.0868207458	the generality
0.0868188825	the scientific literature
0.0868166475	considered in
0.0868042222	to jointly model
0.0867945943	the art graph neural
0.0867941958	the discrimination
0.0867900788	the local manifold
0.0867859777	the perception
0.0867730891	to disambiguate
0.0867624648	model for time series
0.0867621613	the neural network architecture
0.0867595147	to deliver
0.0867532654	the class prior
0.0867503361	a financial
0.0867496011	inference for bayesian
0.0867441688	provides insight into
0.0867348628	order to enhance
0.0867335872	asymptotics of
0.0867288783	four standard
0.0867265060	tested with
0.0867163396	novel situations
0.0867069013	after training
0.0867056121	a given sentence
0.0866977960	the data domain
0.0866950582	shallow models
0.0866880139	trust in
0.0866837227	in certain cases
0.0866779722	by cross validation
0.0866738457	$ e
0.0866733488	datasets from
0.0866705889	a look
0.0866579985	by selecting
0.0866530544	a library
0.0866480595	vc dimension of
0.0866469970	grounded in
0.0866454883	insufficient for
0.0866353156	available online
0.0866251164	without relying
0.0866206113	very strong
0.0866205587	shown state of
0.0866166961	method for automatically
0.0866163909	a linear
0.0866137091	results obtained with
0.0866101368	with large scale datasets
0.0866048478	presented with
0.0866046736	an analogy
0.0865953039	3 layer
0.0865935802	draw from
0.0865745196	great value
0.0865714369	the later
0.0865670101	the classical
0.0865665493	a vital
0.0865574879	a model
0.0865517847	temporal evolution of
0.0865481348	optimization over
0.0865451781	parameterizations of
0.0865435601	adopted in
0.0865432096	optimal choice of
0.0865426998	a certain
0.0865414403	kl divergence to
0.0865303007	network with
0.0865276170	performance on benchmark
0.0865219389	other tasks
0.0865165346	ability to adapt to
0.0865148831	outperform other state of
0.0865084967	a variation
0.0865059154	trained and evaluated on
0.0864983969	much higher than
0.0864948713	the master
0.0864887932	very recently
0.0864825049	enumeration of
0.0864752866	measured in
0.0864680102	develop novel
0.0864649788	intersection over
0.0864592374	these transformations
0.0864584667	a broad class
0.0864513460	than existing approaches
0.0864477840	for large scale machine learning
0.0864460962	networks with random
0.0864370055	the tight
0.0864370006	utilized in
0.0864264859	in financial markets
0.0864215216	entries of
0.0864166661	gan models
0.0864163236	the personal
0.0864150445	of 0.95
0.0864122935	the deployment
0.0864097676	set of metrics
0.0864043825	the solver
0.0864030157	the existing
0.0863995822	developed to
0.0863944330	guarantees for learning
0.0863936562	experiments on several benchmark
0.0863930958	a novel neural network architecture
0.0863883351	the episodic
0.0863862127	k =
0.0863847178	exhibit better
0.0863842200	more discriminative
0.0863726428	resolved by
0.0863628189	a robot
0.0863601000	the causal graph
0.0863585412	observed in
0.0863565849	platforms such as
0.0863452823	experiments on various
0.0863448839	the computational cost
0.0863358651	learnability of
0.0863335325	in resource constrained
0.0863333275	area of
0.0863130107	a continuous
0.0863064144	probability distribution of
0.0862962960	this report
0.0862917744	comparisons with other
0.0862915138	the decomposed
0.0862793850	small models
0.0862793536	product of
0.0862766587	the ultimate goal
0.0862752683	specified level
0.0862690031	algorithm requires only
0.0862639058	embeddings for
0.0862582928	both local
0.0862581916	the natural sciences
0.0862559217	the absence of
0.0862530668	a sensor
0.0862455537	a vast amount
0.0862445835	maximum likelihood estimation in
0.0862408056	disciplines such as
0.0862364723	learning approach for
0.0862350605	images taken
0.0862332160	to aid
0.0862287802	advances in variational
0.0862253918	the extrapolation
0.0862207210	approach to overcome
0.0862046574	order to facilitate
0.0862045721	development of algorithms
0.0861991336	cause analysis
0.0861939853	a consistency
0.0861912941	algorithms like
0.0861892168	error rates of
0.0861649672	problem in network
0.0861501987	trained in
0.0861497420	annotated by
0.0861427751	the gaussian mixture model
0.0861324870	fairness with
0.0861313634	a randomly chosen
0.0861133139	methods for machine
0.0860911816	still lack
0.0860886230	to discriminate
0.0860884478	yield good
0.0860867764	to weigh
0.0860794311	the academic
0.0860787974	a compact representation
0.0860712276	a theoretically sound
0.0860561032	functionals of
0.0860538570	the measure
0.0860521040	a student's
0.0860204450	the synaptic
0.0860186841	$ \ mathbb r ^
0.0860151058	among entities
0.0860122818	by checking
0.0860107151	derivatives of
0.0860034747	information into
0.0859978397	except for
0.0859844965	time dependencies
0.0859844563	par with state of
0.0859835511	new insights into
0.0859812590	the severe
0.0859743131	a transition
0.0859733930	the normalized
0.0859641258	alternating minimization for
0.0859608201	this goal
0.0859597665	this conjecture
0.0859594585	a nash equilibrium
0.0859594356	real world applications such as
0.0859594204	indication of
0.0859564414	mean average
0.0859560420	a broad
0.0859537701	estimator of
0.0859475116	to act
0.0859468316	problem of model
0.0859458947	number of sample
0.0859437208	to account
0.0859362918	better fit
0.0859309702	the test statistic
0.0859241665	used to simulate
0.0859200524	often lack
0.0859175464	to benefit
0.0859128376	each domain
0.0859110908	the contrary
0.0859105715	the penalization
0.0859020640	method in terms
0.0859013613	for sequence labeling
0.0858960457	product of two
0.0858920001	less accurate
0.0858902554	each decision
0.0858898272	the population risk
0.0858892243	approach to perform
0.0858883680	the number of components
0.0858856561	two simple
0.0858837559	the art compression
0.0858787708	a massive
0.0858739835	a common technique
0.0858734139	the expressiveness
0.0858728655	the textual
0.0858715588	the trust region
0.0858650943	used to reconstruct
0.0858633685	each image
0.0858585320	research in
0.0858551102	the coherence
0.0858537193	shown to significantly
0.0858514671	a delay
0.0858511274	great interest in
0.0858488364	to combine
0.0858485680	while simultaneously
0.0858315947	by assigning
0.0858143594	a recent line of
0.0858129052	than competing methods
0.0858108674	derive new
0.0857959644	used to extract
0.0857825266	the input matrix
0.0857787130	these claims
0.0857735872	lying in
0.0857714089	the gaussian kernel
0.0857663719	learning to estimate
0.0857592557	the plane
0.0857476382	all times
0.0857373114	any constant
0.0857365386	to speed up
0.0857163922	to preserve
0.0856987559	the power grid
0.0856985567	many attempts
0.0856955703	the team
0.0856943428	to approximate
0.0856935127	adaptation of
0.0856835010	different data types
0.0856752386	newton methods for
0.0856737886	this paper defines
0.0856665765	few lines
0.0856650929	a robust classifier
0.0856639186	network based models
0.0856507155	the origin
0.0856418111	to run
0.0856346146	expression for
0.0856292205	rich source of
0.0856264841	scans from
0.0856180965	recent works on
0.0856156407	the problem of predicting
0.0856078290	number of previous
0.0856064792	adaptability of
0.0856050829	an average accuracy
0.0856050041	most commonly
0.0855935841	the notion of
0.0855897472	algorithms for classification
0.0855872843	a fairness
0.0855871658	both simulated and real
0.0855824872	a real data example
0.0855707839	dissimilar to
0.0855702095	real data from
0.0855648506	on four real world datasets
0.0855639689	\ right \
0.0855561954	then discuss
0.0855546168	a sliding
0.0855497777	qualities of
0.0855495276	the mmd
0.0855484390	the most probable
0.0855464387	variance across
0.0855399572	examples against
0.0855390071	the art dnns
0.0855364468	also establish
0.0855364147	the ambient space
0.0855360008	established for
0.0855351670	further validate
0.0855281200	a backward
0.0855262969	size of data
0.0855229029	review of
0.0855195012	during meta
0.0855191958	the cycle
0.0855180691	the cumulative regret
0.0855102362	runs in
0.0855099156	the stress
0.0854944155	the mobility
0.0854925809	indeed possible
0.0854768534	popular in recent
0.0854675654	path between
0.0854661359	the conceptual
0.0854651022	as usual
0.0854501394	an output
0.0854441709	the cost function
0.0854345979	the space of
0.0854334451	less well
0.0854197697	the high level
0.0854189802	distribution p
0.0854135290	and cifar 10 datasets
0.0854108719	intersection of
0.0854021955	the motivation
0.0854008561	ability of deep
0.0853957961	variance of
0.0853945170	shown promising results in
0.0853912471	non asymptotic error
0.0853880256	differences between two
0.0853877959	$ memory
0.0853848920	different objectives
0.0853714201	$ \ | x \ |
0.0853619600	successful applications in
0.0853597633	gained from
0.0853546774	a low
0.0853487449	a controlled
0.0853445464	the problem of reconstructing
0.0853426229	order of
0.0853375030	better performance
0.0853310515	a target task
0.0853224872	submission to
0.0853168406	few studies
0.0853096067	the underlying physical
0.0853088310	inference for gaussian
0.0853011014	an incomplete
0.0852906067	approach to deal
0.0852884047	a simplified model
0.0852832347	clustering algorithm based on
0.0852823624	many previous works
0.0852796900	a small sample
0.0852740302	unlikely to
0.0852677499	clustering based on
0.0852673545	meta learning with
0.0852669001	early work
0.0852657792	capabilities of neural
0.0852611252	the multiplication
0.0852578026	the strict
0.0852502866	guarantee for
0.0852468331	a point cloud
0.0852418871	a categorical
0.0852398659	and continuously
0.0852349792	proposing new
0.0852348119	approach for multi
0.0852331532	uncertainties in
0.0852323045	in multi agent reinforcement learning
0.0852277500	find evidence
0.0852111833	such as race
0.0852078468	the model based
0.0852059433	to reproduce
0.0852024551	a coupling
0.0851981340	new applications
0.0851764002	and experimentally
0.0851674257	tasks such as image
0.0851652096	approximation algorithm for
0.0851650126	the influence of
0.0851644119	predictions made
0.0851638092	each input
0.0851548777	class of latent
0.0851506669	selection among
0.0851488535	these methods rely
0.0851467863	exponential number of
0.0851315947	an undirected
0.0851133139	number of latent
0.0851024602	large variety of
0.0850993723	two populations
0.0850881883	survey of
0.0850867999	a finite set
0.0850855864	using pre trained
0.0850823210	various domains
0.0850821697	a unique
0.0850797256	the art bayesian
0.0850783844	an efficient variational
0.0850636973	the mean field regime
0.0850627749	more vulnerable
0.0850601147	one layer
0.0850574956	deep reinforcement learning to
0.0850571582	not available
0.0850485940	a time
0.0850463081	to draw samples
0.0850448081	numerous applications in
0.0850437677	order to effectively
0.0850368406	bayesian model for
0.0850235147	uncertainty through
0.0850227824	common practice of
0.0850200968	a test point
0.0850196795	only 20
0.0850192631	n p
0.0850191958	the compressive
0.0850191958	a security
0.0850190162	the course of training
0.0850131084	this algorithmic
0.0850129048	order to
0.0850114584	terms of classification
0.0850102221	several large scale
0.0850100029	newton algorithm for
0.0850080873	an important research
0.0850012026	to distill
0.0850001339	the interplay between
0.0849995280	a new variational
0.0849833677	with high dimensional data
0.0849747679	the squared loss
0.0849709500	many interesting
0.0849673786	several benefits
0.0849542507	model to achieve
0.0849512095	evaluated on synthetic
0.0849463486	an episodic
0.0849456522	order to perform
0.0849321309	method works well
0.0849298156	work focuses
0.0849280533	also outline
0.0849244692	a proposal
0.0849173786	also investigated
0.0849152959	the art model
0.0849083473	methods for supervised
0.0849058171	to clean
0.0849049015	variety of existing
0.0848975518	a linear function
0.0848967863	unified approach to
0.0848961989	the movement
0.0848930172	generalizes to
0.0848907873	to modulate
0.0848882254	learning approach based on
0.0848844671	but not
0.0848734992	to equip
0.0848660150	a ridge
0.0848625019	2 |
0.0848501226	order to avoid
0.0848424709	optimal with respect
0.0848392766	to augment
0.0848389497	the uniform distribution
0.0848326133	numerical performance of
0.0848288557	framework for low
0.0848285110	at runtime
0.0848244198	deep learning with
0.0848198124	the unknown signal
0.0848147307	the box
0.0848142378	work considers
0.0848073435	examples generated by
0.0848013347	of magnitude less
0.0847902045	a note
0.0847707598	by domain experts
0.0847675731	the necessity
0.0847662202	choice for
0.0847642638	some preliminary
0.0847524289	the ever increasing
0.0847487105	role of
0.0847453461	several real datasets
0.0847402715	the resulting algorithms
0.0847355603	based on pre
0.0847350953	exploitation of
0.0847337959	the temporal dimension
0.0847337871	between two
0.0847318620	gaussian process regression to
0.0847246874	to generalise
0.0847184276	thorough theoretical
0.0847164507	go to
0.0847066880	by mimicking
0.0847053498	other competing
0.0847019216	$ lipschitz
0.0846943428	to analyze
0.0846919590	approaches to learn
0.0846895918	parameterization of
0.0846895591	and false negative
0.0846817906	learning with function
0.0846756807	aggregation of
0.0846648704	significant amount of
0.0846392018	five benchmark
0.0846254008	the analogous
0.0846253156	to drive
0.0846241578	and robustly
0.0846162730	becomes more and more
0.0846108047	popular approach for
0.0846096409	the most basic
0.0846021225	the training sample
0.0846020965	hierarchical structure of
0.0846001317	parameter of interest
0.0845935841	the effects of
0.0845913365	approach to neural
0.0845912084	the patch
0.0845909613	and storage cost
0.0845784346	the review
0.0845778756	the learned distribution
0.0845773575	an integral part of
0.0845746736	correlations in
0.0845713486	machine learning for
0.0845683039	become more and more
0.0845611534	causal effects from
0.0845607264	to diagnose
0.0845571402	becomes important
0.0845552926	a graphical model
0.0845497777	eigenfunctions of
0.0845469459	problem of ranking
0.0845436773	also conduct
0.0845414311	these components
0.0845396776	the co occurrence
0.0845325686	to forecast
0.0845242767	then apply
0.0845228112	by measuring
0.0845191958	the assignment
0.0845166718	based on mutual
0.0845115159	with varying degrees
0.0845065313	3d structure
0.0845059433	a careful
0.0844994565	proposed to
0.0844980605	formulations of
0.0844927443	the multimodal
0.0844927443	the biased
0.0844898643	inadequate for
0.0844894930	to answer
0.0844889448	accurate models
0.0844876223	gives better
0.0844828869	works on
0.0844824777	learning approach to
0.0844773930	to decouple
0.0844718601	while giving
0.0844714805	order to train
0.0844687767	functions defined on
0.0844678054	learning algorithms based on
0.0844607264	to begin
0.0844505445	the option
0.0844342658	across tasks
0.0844293902	approach using
0.0844259224	the waveform
0.0844253979	face of
0.0844245863	order to model
0.0844222966	uniform convergence of
0.0844173786	under suitable
0.0844122935	the rare
0.0844121365	to gain insight into
0.0844069205	savings in
0.0844031847	the shuffle model
0.0844025412	the fit
0.0843969588	the crux
0.0843893903	trying to
0.0843853481	performing well
0.0843838650	on real datasets
0.0843759822	weighted combination of
0.0843679994	bayesian approach for
0.0843676527	a simpler
0.0843670861	three publicly
0.0843443337	with unknown dynamics
0.0843425779	critical point of
0.0843372978	out of distribution data
0.0843359778	an important application
0.0843278673	variational autoencoder with
0.0843273830	any point
0.0843245765	performance of supervised
0.0843177443	the verification
0.0843137664	in high dimensional problems
0.0843088213	processing time
0.0843048006	the post processing
0.0842999481	a softmax
0.0842931049	probabilities of
0.0842911895	a convergence
0.0842873425	perform much better
0.0842725179	two domains
0.0842713061	approach to automatically
0.0842675365	learning to improve
0.0842625783	an attack
0.0842594591	most real world
0.0842559217	the usefulness of
0.0842558952	two key
0.0842546083	$ robustness
0.0842474152	number of images
0.0842439375	modeling approach to
0.0842352717	three well known
0.0842182615	not feasible
0.0842163986	the angle
0.0842129643	unseen during
0.0841979807	the identifiability
0.0841880107	a solution
0.0841874314	these goals
0.0841829436	a brain
0.0841827944	different implementations
0.0841825169	creation of
0.0841767273	to apply machine learning
0.0841756934	does not match
0.0841729491	the ability to
0.0841713985	a significant impact
0.0841705385	by assuming
0.0841547765	good models
0.0841515665	do not perform
0.0841486875	with much fewer
0.0841384108	the vast amount
0.0841328879	the climate
0.0841299406	frontier for
0.0841295579	the feed forward
0.0841285057	^ i
0.0841276972	reasons for
0.0841257979	commonly known as
0.0841248951	experienced by
0.0841182901	$ n ^
0.0841129504	guaranteed to find
0.0841100354	threat to
0.0841097676	approach to efficiently
0.0841032901	norm of
0.0841012645	the parameters of
0.0840965571	in depth
0.0840912084	the healthy
0.0840895464	generalized version of
0.0840888297	widely studied in
0.0840876565	violations of
0.0840777984	d =
0.0840713362	saddle points in
0.0840685953	approaches to learning
0.0840593022	a real time
0.0840563006	become very
0.0840514739	approach to deep
0.0840496827	the most successful
0.0840470728	in order to solve
0.0840356110	take as
0.0840351869	$ r =
0.0840349956	to real world problems
0.0840295314	small compared to
0.0840189371	algorithms with
0.0840021338	more efficiently
0.0839956268	the excellent
0.0839950366	the user item
0.0839916575	to attain
0.0839816062	extensive experiments on four
0.0839768263	successful in
0.0839760995	sensitive to small
0.0839759570	a chain
0.0839679833	relationships within
0.0839637614	the air
0.0839632739	decided to
0.0839561596	one reason
0.0839554779	generalise to
0.0839452020	10 \
0.0839414865	explored in
0.0839406529	recent works show
0.0839397540	visualizations of
0.0839371588	$ error
0.0839301087	the reuse
0.0839259224	the interpolating
0.0839217694	great potential of
0.0839209644	used to define
0.0839134386	a novel end to end
0.0839106318	work demonstrates
0.0839047581	variation between
0.0839043825	the gender
0.0839033194	the stable
0.0839011124	show promising results
0.0838988647	functions over
0.0838942662	increasing popularity of
0.0838935324	scalable algorithm for
0.0838903836	results presented in
0.0838899254	between probability measures
0.0838833275	behaviors of
0.0838779955	very well
0.0838684325	often requires
0.0838622370	the segment
0.0838573682	theoretical guarantee for
0.0838546229	other alternatives
0.0838495321	further enhanced
0.0838439542	novel attention based
0.0838436804	the anti
0.0838312431	the medical field
0.0838283813	exist in
0.0838268937	especially important
0.0838223016	to discern
0.0838206611	different loss functions
0.0838089773	the global maximum
0.0838084109	this literature
0.0838079915	in essence
0.0837943999	also demonstrate
0.0837931795	number of mixture
0.0837883223	a corpus
0.0837827724	the data
0.0837823338	these modifications
0.0837777792	a new efficient
0.0837710954	two block
0.0837691958	the bridge
0.0837636144	first search
0.0837542541	comparable or
0.0837505155	training neural networks for
0.0837378451	systems such as
0.0837370390	ratings from
0.0837363150	the half
0.0837359999	the confusion
0.0837333275	ratio of
0.0837322834	highlight several
0.0837268219	transformed by
0.0837179713	number of recent
0.0837172717	more formally
0.0837156768	four benchmark
0.0837144647	$ regression
0.0837056819	order to tackle
0.0837005445	the water
0.0837000791	theme of
0.0836998748	learning to model
0.0836951323	the transmission
0.0836817906	problem of sampling
0.0836817906	generalization of neural
0.0836788331	than competing
0.0836750844	same rate
0.0836591054	missing values in
0.0836581327	the network width
0.0836548822	to categorize
0.0836530649	log likelihood of
0.0836514974	a necessity
0.0836487664	algorithms for approximate
0.0836440601	the reasoning
0.0836409321	data collected in
0.0836391855	random walk on
0.0836227090	a linear combination
0.0836211825	irrelevant or
0.0836204368	structure in
0.0836190601	a frequency
0.0836116587	demonstration of
0.0836086759	no guarantee
0.0835938716	future time
0.0835913365	methods for sparse
0.0835892434	a forest
0.0835779408	an orthonormal
0.0835689054	of 75
0.0835685397	commonly used in
0.0835514175	a perceptual
0.0835487789	a general methodology
0.0835436677	sparsity in
0.0835435358	even impossible
0.0835421836	compared to state
0.0835396831	the mutual information
0.0835365740	the supply
0.0835194876	an industrial
0.0835180614	the method
0.0835169643	effective technique for
0.0835150158	occur at
0.0835144677	the extent to
0.0835126078	a logarithmic regret
0.0834805024	capability of learning
0.0834732764	often limited
0.0834668746	search for
0.0834653831	both noisy
0.0834636964	various ways
0.0834613458	process of
0.0834584074	the structure of
0.0834445881	properties of data
0.0834405882	more targeted
0.0834348430	unsupervised way
0.0834315131	a variant of
0.0834175641	order to produce
0.0834114537	biases in
0.0834092708	a sparse representation
0.0834064927	a stochastic
0.0834028127	the art results in
0.0833934108	other factors
0.0833926028	the celebrated
0.0833859777	the asynchronous
0.0833858744	guidance on
0.0833857391	covariance matrix of
0.0833816707	model based approach to
0.0833741352	for kernel ridge regression
0.0833698706	an artificial
0.0833678407	several existing approaches
0.0833668334	machine learning model for
0.0833533494	the field of deep learning
0.0833532119	available training data
0.0833527592	also propose
0.0833519509	carlo algorithm for
0.0833479347	non convergence
0.0833453047	methods for policy
0.0833420595	vision models
0.0833372830	statistical methods for
0.0833365652	any time
0.0833338710	surge in
0.0833332247	^ 2 =
0.0833328614	a novel multi
0.0833294809	currently used
0.0833292501	still maintaining
0.0833280502	exactly for
0.0833220323	the ood
0.0833162540	less prone to
0.0833117994	to characterize
0.0833057651	class of learning
0.0832929752	learning to address
0.0832907104	carried out using
0.0832896216	consistent under
0.0832744696	sampling distribution of
0.0832741356	the feedforward
0.0832678726	an efficient technique
0.0832489039	significant improvements on
0.0832413816	a novel statistical
0.0832404544	classification accuracy of
0.0832378183	to tailor
0.0832375495	a non stationary
0.0832350954	the model free
0.0832279947	the merits
0.0832265140	the source code
0.0832240930	very sensitive to
0.0832152765	still limited
0.0832148362	the above
0.0832048487	a non
0.0832023935	the screening
0.0832023935	the poor
0.0832016153	a traffic
0.0831962771	effective in
0.0831917033	implicit regularization in
0.0831908184	a bridge
0.0831802254	the irregular
0.0831757914	not fully
0.0831658228	for mitigating
0.0831546455	a parameter server
0.0831505524	central problem in
0.0831498621	hyper parameters of
0.0831409922	also presented
0.0831311580	results shed
0.0831284899	set of base
0.0831281159	a grid
0.0831219434	maintaining good
0.0831105240	this viewpoint
0.0830966772	the teacher
0.0830894305	the interactive
0.0830891911	set of input
0.0830888985	the last
0.0830749743	or not
0.0830719834	$ t =
0.0830626196	attempted to
0.0830588459	not unique
0.0830548989	compliance with
0.0830485147	regularization via
0.0830401061	each time point
0.0830378887	only 10
0.0830304730	method to handle
0.0830238382	the fine grained
0.0830234026	the model complexity
0.0830222164	obtained for
0.0830204450	the abnormal
0.0830101181	the time evolution of
0.0830093020	both prediction
0.0830037350	redundancy in
0.0829919493	to attract
0.0829891491	commonly referred to
0.0829849300	ergodicity of
0.0829842308	suitable for real
0.0829818393	want to learn
0.0829804638	an experimental
0.0829773930	to annotate
0.0829675550	rules for
0.0829588958	on cifar 10 and imagenet
0.0829555497	optimality of
0.0829516490	an online algorithm
0.0829457907	a multi class classification
0.0829377555	time predictions
0.0829343771	both synthetic data
0.0829287554	number of challenges
0.0829239432	the predictability
0.0829217595	several existing methods
0.0829167656	by exposing
0.0829110581	while increasing
0.0829107799	a crucial
0.0829098298	this regret
0.0829061596	this direction
0.0829006181	feature space into
0.0828990215	present here
0.0828969608	with real world data
0.0828960458	the calculation
0.0828896389	the closed form
0.0828886068	number of function
0.0828879541	the layer wise
0.0828876071	a diagnostic
0.0828773371	by taking into account
0.0828747602	limited amount of data
0.0828702337	image models
0.0828641236	design of
0.0828618776	an efficient procedure
0.0828614159	neural network architectures for
0.0828584244	the null distribution
0.0828578469	the beginning
0.0828574851	a center
0.0828503396	the target density
0.0828472164	performances of
0.0828353343	objects in
0.0828237882	rates of convergence for
0.0828187882	to model complex
0.0828167475	an estimator
0.0828110581	these groups
0.0827951326	not know
0.0827896049	in machine learning applications
0.0827863831	temporal structure of
0.0827815544	require knowledge of
0.0827796474	method outperforms other
0.0827770027	learning method for
0.0827760447	1 \ leq i
0.0827644031	motivated from
0.0827619563	input into
0.0827542082	the graph size
0.0827527441	problems in data
0.0827375415	the learned latent
0.0827358078	space into
0.0827355799	trained on data from
0.0827280786	on designing
0.0827254230	very different
0.0827236047	considerable attention in
0.0827166237	achieve zero
0.0827112983	full dimensional
0.0827061989	the diagnostic
0.0827049992	l =
0.0827035559	divergence between two
0.0826962751	general form of
0.0826934367	a broader class
0.0826872665	adapt to new
0.0826790197	of sand
0.0826753480	fitted to
0.0826714403	only considers
0.0826705116	the coverage
0.0826672460	decomposed into two
0.0826569000	a wide range of problems
0.0826557647	the weighted sum
0.0826554187	network for predicting
0.0826547820	\ sqrt s
0.0826457199	the scalar
0.0826418588	by approximating
0.0826381036	the ever
0.0826364447	to transfer knowledge
0.0826354735	possible improvements
0.0826246054	inspired by recent work
0.0826196496	a structural
0.0826073086	scale well to
0.0825991239	applied to other
0.0825935841	the power of
0.0825928128	several representative
0.0825913848	more suited
0.0825912084	the assigned
0.0825873632	between two nodes
0.0825866196	this insight
0.0825846529	volume of
0.0825807805	as part of
0.0825777247	these rules
0.0825771467	a practitioner
0.0825703449	from logged
0.0825580873	accessible to
0.0825522253	end to end system
0.0825518975	classification with deep
0.0825450915	via crowdsourcing
0.0825351280	harder to
0.0825223740	all local
0.0825191958	the frame
0.0825191958	the expansion
0.0825131876	machine learning problems such
0.0825122480	the most influential
0.0825031552	validated with
0.0825003422	a misclassification
0.0824941737	less relevant
0.0824833368	a naive approach
0.0824828253	a spike
0.0824736605	considered to
0.0824696510	correspondence with
0.0824664339	experiments on several real
0.0824577969	a new stochastic
0.0824573705	an evaluation
0.0824555175	between words
0.0824524239	to develop
0.0824423935	matched to
0.0824423600	do not fit
0.0824382164	one third
0.0824334536	a minor
0.0824293552	each product
0.0824179612	not guaranteed
0.0824108832	often arise
0.0824007322	the examined
0.0824004401	model for image
0.0824000548	a vector valued
0.0823895152	the revealed
0.0823884837	a few hours
0.0823843416	large size of
0.0823804346	often desirable
0.0823798798	in large scale problems
0.0823777633	method for time series
0.0823760531	to ask
0.0823718589	a new benchmark
0.0823660406	the adverse effects
0.0823620518	a few shot
0.0823508477	by transferring knowledge
0.0823500780	a sentence
0.0823382194	sent to
0.0823284807	popularity of
0.0823272264	a new task
0.0823225656	many efforts
0.0823170384	the stochastic gradient descent
0.0823145909	the multiscale
0.0823123269	many forms
0.0822946952	full information setting
0.0822941753	the systematic
0.0822924229	only few
0.0822888830	independently of
0.0822882624	networks with high
0.0822758954	the bipartite
0.0822748080	all tested
0.0822739167	the square loss
0.0822701014	recommendations for
0.0822683156	number of machines
0.0822592557	the chance
0.0822565112	object of interest
0.0822548913	the latent
0.0822522375	posterior distribution of
0.0822505536	without additional
0.0822434742	appears in
0.0822428595	the adapted
0.0822364997	the full
0.0822334688	the white box
0.0822319360	linear time algorithm for
0.0822311231	across clusters
0.0822288722	the issue
0.0822194158	two public
0.0822177443	a utility
0.0822174534	the backpropagation
0.0822174458	performs well in
0.0822135164	help users
0.0822097562	$ nearest neighbors
0.0822067472	the radio
0.0822054562	of 96
0.0822008973	an unobserved
0.0821956476	these factors
0.0821850920	door to
0.0821812259	methods for data
0.0821761833	used in practice
0.0821742413	over state of
0.0821733495	understand whether
0.0821717608	the mask
0.0821712686	two public datasets
0.0821704637	contributions of
0.0821476195	a well defined
0.0821424093	in real applications
0.0821399206	not reliable
0.0821344674	$ statistic
0.0821293838	often employed
0.0821178950	a neural net
0.0821152493	the collective
0.0821148035	graph neural network to
0.0821122917	by discussing
0.0821055227	a higher dimensional
0.0821003901	the ode
0.0820965145	$ suboptimal
0.0820948207	condition for
0.0820939306	make sense
0.0820933720	increased interest
0.0820859961	a multi dimensional
0.0820768133	better prediction accuracy
0.0820767350	and quantitatively
0.0820687517	the art deep neural
0.0820668451	a real world data
0.0820603495	far more
0.0820534742	connection with
0.0820514042	time cost
0.0820501143	speedups of
0.0820439331	replacement for
0.0820434930	relevant for
0.0820260002	to restrict
0.0820204450	the ot
0.0820131434	not hold
0.0820117350	the generalised
0.0820105445	the delayed
0.0820102601	other aspects
0.0820047325	order to select
0.0819970560	experimental comparison of
0.0819956948	the crowd
0.0819935098	synthesized by
0.0819924996	$ \ mathcal b
0.0819863970	quality than
0.0819782518	to impose
0.0819713211	to relate
0.0819686636	the cross correlation
0.0819617923	a target
0.0819532668	\ cdot n
0.0819512031	the potential of
0.0819507273	much more general
0.0819506229	demonstrated via
0.0819410259	the principal
0.0819379930	duration of
0.0819316541	an outstanding
0.0819236517	grown in
0.0819205116	the imputation
0.0819178764	very useful
0.0819174222	a music
0.0819138643	a two level
0.0819106066	to go
0.0819057592	problems like
0.0819023853	cornerstone of
0.0818954961	agents learn to
0.0818949889	the rotation
0.0818938082	two layer neural networks with
0.0818848967	to match
0.0818842895	by optimizing
0.0818837655	the generator
0.0818833275	separation of
0.0818811267	the column
0.0818811267	the hyperbolic
0.0818763902	to learn low dimensional
0.0818699589	determinants of
0.0818669362	the portfolio
0.0818661881	not exist
0.0818636523	the news
0.0818636068	algorithms for large
0.0818600428	improves on
0.0818570965	a vector space
0.0818422597	the square of
0.0818396266	the described
0.0818348909	the cause
0.0818311714	to exchange
0.0818290669	time budget
0.0818250125	a more powerful
0.0818143119	to send
0.0818117752	$ sample complexity
0.0818020250	effective methods for
0.0817994692	the spurious
0.0817946317	of 99
0.0817833205	provably robust to
0.0817746191	thought as
0.0817728941	trained from
0.0817689426	decision making with
0.0817648047	studies on
0.0817621184	results on multiple
0.0817600412	deep learning approach to
0.0817492592	thus improving
0.0817490262	those seen
0.0817425374	the law
0.0817395031	bounds based on
0.0817322571	trained on real
0.0817255383	result provides
0.0817242681	work extends
0.0817241264	an annealing
0.0817177743	$ \ mathbf z
0.0817136068	methods for bayesian
0.0817085601	the correspondence
0.0817032311	a network
0.0817027914	various network architectures
0.0817004709	using real world data
0.0816975920	terms of learning
0.0816921806	both random
0.0816852216	such as alexnet
0.0816790365	proven useful in
0.0816752764	full posterior
0.0816678481	a difficult task
0.0816604137	the perceptron
0.0816574179	an approach
0.0816547333	a given threshold
0.0816499042	a daunting
0.0816493745	robust mean
0.0816405981	an end to end approach
0.0816403317	the saddle point
0.0816375820	approach to unsupervised
0.0816337655	the maximum
0.0816250839	an intermediate
0.0816223946	reinforcement learning via
0.0816161564	a step forward
0.0816100260	a novel approach
0.0816077123	patterns between
0.0816002192	different languages
0.0815984834	one cluster
0.0815957908	to compensate for
0.0815954469	order to alleviate
0.0815917254	a time varying
0.0815845431	does so
0.0815767810	specificity of
0.0815714588	influence of
0.0815659712	a call
0.0815649838	relevant information for
0.0815637958	to target
0.0815621951	the interpretability
0.0815614631	predictive performance than
0.0815561292	under investigation
0.0815539015	the behavior of
0.0815507908	a wider range of
0.0815504695	theoretical analyses of
0.0815499697	filling in
0.0815481231	yet powerful
0.0815436356	near real
0.0815419433	a recall
0.0815390813	to inspire
0.0815371640	natural generalization of
0.0815266268	methods for convex
0.0815199437	pair of
0.0815174618	range of datasets
0.0815166658	comparable with
0.0815076487	generalizing to
0.0815037653	current methods for
0.0815027918	y = \
0.0815012026	a slight
0.0814978262	an obvious
0.0814955897	lower and upper bounds on
0.0814952588	evaluated via
0.0814890329	six datasets
0.0814863877	the wavelet
0.0814840313	very general
0.0814775087	the characterization
0.0814702774	bias due to
0.0814701013	the lack
0.0814678692	this kind
0.0814586445	machine learning applications in
0.0814410038	c =
0.0814383922	better convergence
0.0814360964	both upper and lower bounds
0.0814344733	to automatically discover
0.0814339186	the time series
0.0814313738	same input
0.0814294307	interactions within
0.0814139428	by 20
0.0814133383	various scenarios
0.0814120206	made available
0.0814086045	the ambient
0.0814070074	a broad range
0.0814064927	a local
0.0814060331	$ 90
0.0814030769	while limiting
0.0814026666	the continuity
0.0813981748	$ loss
0.0813948788	illustrations of
0.0813946690	environments with
0.0813931009	number of cases
0.0813905830	then selects
0.0813893154	class of markov
0.0813874403	the success of deep neural networks
0.0813870615	the number of edges
0.0813844825	still requires
0.0813793595	a little
0.0813779311	the index
0.0813723499	to verify
0.0813643377	conflict with
0.0813641237	method leads to
0.0813600935	for image restoration
0.0813582776	one aspect
0.0813437855	the length
0.0813384206	this characterization
0.0813376996	the star
0.0813087578	with normalizing flows
0.0813075566	developed in
0.0812855135	box attacks on
0.0812632592	computed without
0.0812603163	functions with
0.0812526149	of atoms
0.0812496524	a prediction model
0.0812488596	interpretable way
0.0812402797	a surrogate model
0.0812348565	a general setting
0.0812335320	bound of
0.0812280670	the classification task
0.0812255445	the proximity
0.0812228683	over vanilla
0.0812195916	order to make
0.0812173827	pretrained on
0.0812166704	recent studies on
0.0812068658	no worse than
0.0812007857	probability density function of
0.0811967495	two convex functions
0.0811941676	not properly
0.0811873893	agent learns to
0.0811758138	recent interest in
0.0811743812	principle of
0.0811677809	class of deep
0.0811654882	a gaussian
0.0811626885	few parameters
0.0811617912	more reasonable
0.0811465118	a relaxation
0.0811422049	obtained without
0.0811414978	a novel reinforcement learning
0.0811371358	datasets to evaluate
0.0811271907	to probe
0.0811269323	deep convolutional neural networks for
0.0811224872	deterioration of
0.0811178023	o m method
0.0811173068	$ \ sqrt \ log
0.0811136429	vulnerability of
0.0811104105	an approximate posterior
0.0811072290	maps from
0.0811065161	violation of
0.0810984709	1 \ varepsilon ^
0.0810976008	and perhaps
0.0810948207	scalable to
0.0810830012	one or multiple
0.0810766263	several real world data
0.0810750487	the same distribution
0.0810747657	by allowing
0.0810686073	2 \ epsilon
0.0810537241	each point
0.0810449620	but instead
0.0810428692	to compose
0.0810408865	clustering structure of
0.0810393449	an integral part
0.0810251992	from various sources
0.0810187988	data obtained from
0.0810170190	the non convex
0.0810153811	a fair
0.0810135406	work suggests
0.0810117316	samples per
0.0810088897	two groups
0.0809995288	several studies
0.0809944155	the tumor
0.0809863814	introduce two novel
0.0809826231	from multiple domains
0.0809825793	certain regularity
0.0809705402	$ \ gamma =
0.0809696667	gradients during
0.0809669523	the remote
0.0809642877	some instances
0.0809636068	method for feature
0.0809523545	$ stable
0.0809520081	a critical role
0.0809460694	the medical domain
0.0809458947	number of input
0.0809438134	the robot's
0.0809423301	the overparameterized
0.0809382868	trained with data
0.0809246698	approach for deep
0.0809235248	function to learn
0.0809182028	algorithms to optimize
0.0809175165	k +
0.0809167656	an inevitable
0.0809129282	inference algorithm for
0.0809121740	despite significant
0.0809118168	the task loss
0.0809092041	the multitask
0.0808993940	this projection
0.0808983724	new insight
0.0808966994	different levels
0.0808879903	motivations for
0.0808846532	not suitable
0.0808694775	reused for
0.0808690601	the autoregressive
0.0808690539	an abstraction
0.0808600809	the density ratio
0.0808529473	an inference network
0.0808497226	an error bound
0.0808488508	each experiment
0.0808437350	interests in
0.0808210028	query complexity of
0.0808135228	two modules
0.0808109293	often outperforming
0.0808080873	taxonomy of
0.0808078698	the perspective of
0.0808074905	act on
0.0808016122	variable selection in
0.0807984700	concept drift in
0.0807963783	a practically
0.0807945332	the processed
0.0807856485	a penalty term
0.0807833254	with great success
0.0807803007	framework to
0.0807775817	a user
0.0807715003	elements in
0.0807708245	the mimic
0.0807583260	a building block
0.0807566745	the art detection
0.0807505148	the correctness
0.0807488735	the prediction error
0.0807438406	approach results in
0.0807389682	scales to high
0.0807301168	with provable convergence
0.0807195664	$ term
0.0807192077	operate with
0.0807124541	and real data demonstrate
0.0806908184	a wireless
0.0806903660	distillation with
0.0806880162	organization of
0.0806879100	supervised methods for
0.0806860808	compare several
0.0806858860	in reproducing kernel hilbert
0.0806852283	more accurate prediction
0.0806846780	a worse
0.0806788619	same time
0.0806734458	covariance structure of
0.0806678692	to impute
0.0806653458	the estimation error
0.0806648197	trade off for
0.0806630086	the cell
0.0806501386	known to
0.0806485863	not covered
0.0806480693	new items
0.0806457199	the corruption
0.0806453504	useful features
0.0806441058	the enhancement
0.0806419778	achieved with
0.0806388576	the learned features
0.0806353757	the functionality
0.0806348399	agents do not
0.0806347681	the second
0.0806346199	the correct
0.0806337655	the estimated
0.0806257162	bayesian neural networks with
0.0806216556	a background
0.0806202789	of recovering
0.0806177849	the discriminator
0.0806146697	a very
0.0806085937	performance on standard
0.0806055951	in many settings
0.0805997235	statistical framework for
0.0805937612	large space of
0.0805906330	further explore
0.0805710659	error analysis of
0.0805710492	the entity
0.0805677316	by contrast
0.0805666965	a significant drop
0.0805622843	to speed
0.0805606204	the number of training examples
0.0805566239	search system
0.0805497319	the cellular
0.0805422319	$ complexity
0.0805419653	the perspective
0.0805400954	addressed in
0.0805251564	t = \
0.0805187825	a linear classifier
0.0805141288	empirical study of
0.0805045574	the authors
0.0805027809	matrix factorization models
0.0804936012	recommended to
0.0804933720	minimal changes
0.0804900552	conducted to
0.0804841568	computational advantages of
0.0804812576	the randomization
0.0804805891	the localization
0.0804650190	generated using
0.0804601245	evaluated on two
0.0804534253	respectively for
0.0804525249	the most relevant
0.0804516102	yet challenging
0.0804451213	full state
0.0804431906	to report
0.0804425953	a difference
0.0804410448	convex formulation for
0.0804370055	the desirable
0.0804316329	potential of deep
0.0804313794	article provides
0.0804299730	each device
0.0804291860	some conditions
0.0804232831	activity using
0.0804226967	generative adversarial network for
0.0804217205	a general technique
0.0804184856	well adapted
0.0804168502	$ satisfies
0.0804167870	a modest
0.0804141488	this property
0.0804122935	the published
0.0804078916	widespread use in
0.0804011014	an i.i.d
0.0804007322	the randomness
0.0804003116	the audio signal
0.0803992541	large body of
0.0803906048	$ smooth
0.0803888415	methods in terms of
0.0803877959	this feedback
0.0803793004	but lack
0.0803713211	a sublinear
0.0803696484	\ epsilon n
0.0803678824	these developments
0.0803442747	the art approach
0.0803385527	this technique
0.0803378908	the dominant
0.0803349973	at random
0.0803333319	various forms
0.0803323933	this surrogate
0.0803248570	any prior
0.0803195796	using cross validation
0.0803142103	network trained with
0.0803101326	constraints into
0.0803071966	the model distribution
0.0802941418	a recent paper
0.0802939157	arrangement of
0.0802825668	major challenge for
0.0802815947	theoretical support for
0.0802765556	optimal combination of
0.0802731699	produce better
0.0802722607	control policies for
0.0802707367	significant fraction of
0.0802704254	prior state of
0.0802699343	an iterative method
0.0802620242	the stock market
0.0802617346	able to fit
0.0802614174	dependence of
0.0802613201	many signal processing
0.0802601411	the entire space
0.0802509938	performance of machine
0.0802469186	extensive analysis of
0.0802452161	\ beta ^
0.0802450798	in real world networks
0.0802252426	to relax
0.0802195664	$ tensor
0.0802058411	seven different
0.0802048171	more rapidly
0.0802040414	set of basis
0.0801921015	to learn disentangled
0.0801777339	an analog
0.0801763528	of utmost
0.0801687801	promising approach to
0.0801654882	a variational
0.0801363390	the proposed criterion
0.0801300650	a regret bound
0.0801158394	this paper suggests
0.0801099440	while maximizing
0.0801097902	robust enough
0.0801055497	limit of
0.0801027558	stochastic variant of
0.0801002496	non parametric estimation of
0.0800915275	time sequences
0.0800909636	prediction performance of
0.0800858546	the student
0.0800782239	to infer causal
0.0800720725	to unravel
0.0800710696	various real world
0.0800673264	the synchronization
0.0800606468	this statement
0.0800593578	organized as
0.0800593487	unknown number of
0.0800525058	simple to use
0.0800507017	a formulation
0.0800474293	order to identify
0.0800329947	the stored
0.0800307040	the second part
0.0800284569	allow users
0.0800271618	model to analyze
0.0800244896	this paper takes
0.0800222465	a dendrogram
0.0800174713	the occurrence
0.0800163594	comprehensive survey of
0.0800126027	very common
0.0800114446	between random variables
0.0799908154	the binding
0.0799882837	the opposite
0.0799733481	the optical
0.0799698233	to efficiently solve
0.0799689422	both supervised
0.0799670728	the most challenging
0.0799598060	approach to compute
0.0799571549	complexity bound of
0.0799483597	opt \
0.0799458043	a translation
0.0799454300	connected components of
0.0799442112	order to understand
0.0799431428	the inclusion
0.0799388829	more recent
0.0799245373	only provide
0.0799186579	sensing using
0.0799180573	at best
0.0799134120	and real world examples
0.0799110647	new tools
0.0799070091	many others
0.0799025412	a compression
0.0799006664	corpus of
0.0799001358	the business
0.0798980319	a squared
0.0798897423	distributed version of
0.0798873157	the driver
0.0798830483	original time series
0.0798778649	grounded on
0.0798672294	these successes
0.0798652797	a prior distribution
0.0798560080	convergence rate for
0.0798464808	the art sparse
0.0798464556	an infinite number of
0.0798390880	some well known
0.0798350642	to apply
0.0798320973	learning and computer vision
0.0798283605	develop two novel
0.0798259860	to seek
0.0798210842	discover novel
0.0798199861	the propagation
0.0798198124	the test phase
0.0798180211	both academic
0.0798145909	the subgraph
0.0798123504	an artificial neural
0.0798114003	the classification performance
0.0798048139	number of communication
0.0797884587	a unique solution
0.0797865778	the free energy
0.0797806052	often appear
0.0797803938	a theoretical bound
0.0797771875	translate to
0.0797770368	little understanding
0.0797653271	formulation for
0.0797592538	the cross validation
0.0797569527	nature of data
0.0797501203	to parameterize
0.0797444884	in training deep neural networks
0.0797443914	these procedures
0.0797442592	significant loss in
0.0797386184	the style
0.0797305016	on developing
0.0797291933	to achieve high
0.0797269784	a method for
0.0797214039	often comes
0.0797207494	a union of subspaces
0.0797189628	$ i
0.0797164107	walks on
0.0797151644	the perfect
0.0797144824	algorithm for bayesian
0.0797136541	introduce two new
0.0797133486	does not perform well
0.0797081283	\ mathbb c
0.0797039405	halfspaces in
0.0797001768	two shortcomings
0.0796999907	linear convergence of
0.0796978714	challenge of learning
0.0796964868	a dimensionality reduction
0.0796943754	do not explicitly
0.0796857968	such as k means
0.0796833662	in order to prevent
0.0796757157	polynomially with
0.0796743911	by composing
0.0796718076	the financial industry
0.0796695897	a so called
0.0796692686	roles in
0.0796686703	the overfitting
0.0796680380	more promising
0.0796634152	= n
0.0796627645	the subtle
0.0796625345	the first non asymptotic
0.0796611213	the short time fourier
0.0796588710	ubiquity of
0.0796585531	under proper
0.0796566523	and temporally
0.0796554459	on simulated and real world data
0.0796386184	the ad
0.0796385908	no prior
0.0796363143	the personalized
0.0796345907	$ n d
0.0796325606	the pair wise
0.0796309211	the rapid increase
0.0796308471	detect changes in
0.0796267258	a general class of
0.0796194634	the revenue
0.0796176632	data generated from
0.0796131023	learning to perform
0.0796008069	recent surge of
0.0795953410	adversarial examples with
0.0795945790	a coefficient
0.0795935841	the lack of
0.0795870458	generally do not
0.0795836356	competitively with
0.0795790362	method to evaluate
0.0795554448	the forward backward
0.0795534533	algorithm for multi
0.0795533117	known ones
0.0795497319	the epoch
0.0795473365	most popular
0.0795468483	a grid search
0.0795387479	the hinge
0.0795276087	studied under
0.0795243371	b =
0.0795236789	studies focus on
0.0795191958	the history
0.0795168936	only needs
0.0795144062	mechanics of
0.0794999453	performance of algorithms
0.0794999400	\ log n n
0.0794763608	a cross validation
0.0794733909	the key ideas
0.0794701274	problem in computational
0.0794521988	advantages of deep
0.0794519129	show empirically
0.0794472260	the source and target domains
0.0794457740	a piecewise linear
0.0794426972	a tighter bound
0.0794387315	resilience to
0.0794268287	major challenge in
0.0794265270	a convex concave
0.0794184732	the same cluster
0.0794142927	learning model based on
0.0794026394	the normalizing constant
0.0794007322	the ntk
0.0793937915	to design
0.0793892004	the likelihood ratio
0.0793857279	often assumed
0.0793849790	a countable
0.0793841612	real world applications such
0.0793713989	q \
0.0793650060	just one
0.0793630321	a plethora of
0.0793609519	a sparse
0.0793584172	an expressive
0.0793573763	obtained as
0.0793532709	and secondly
0.0793497758	a federated
0.0793487282	connections with
0.0793460275	root cause of
0.0793456187	to compare
0.0793445462	the linearity
0.0793425890	the subgroup
0.0793358546	the cloud
0.0793349316	a starting
0.0793341922	data set from
0.0793208073	results on four
0.0793159931	comparable results with
0.0793087048	model to improve
0.0793045199	gracefully with
0.0793004321	the exact
0.0792958674	not aware of
0.0792927537	promises to
0.0792628556	this model
0.0792617624	to achieve higher
0.0792595599	a comprehensive evaluation
0.0792583218	the mahalanobis distance
0.0792547474	the received
0.0792453410	variational inference with
0.0792406691	this research
0.0792399422	these differences
0.0792310647	new methodology
0.0792271650	other criteria
0.0792267647	method for machine
0.0792214155	three times
0.0792020611	a need
0.0792012750	eigendecomposition of
0.0791908184	for speaker
0.0791901058	also highlight
0.0791733526	the existing theory
0.0791627651	number of local
0.0791617903	the discretization
0.0791564073	every single
0.0791558539	examine two
0.0791519001	even after
0.0791501132	an unconstrained
0.0791482645	novel ways
0.0791472558	the storage
0.0791368773	number of existing
0.0791342324	a general method for
0.0791328324	without actually
0.0791235412	an alternating direction method of multipliers
0.0791211114	n \ sqrt
0.0791191519	this change
0.0791164187	more relevant
0.0791161287	strongly convex and
0.0791032518	to induce
0.0791012645	the distribution of
0.0790943693	a number of real world
0.0790795588	an inner
0.0790787453	used successfully
0.0790748967	with varying
0.0790679086	to exclude
0.0790677443	the observational
0.0790648977	trained using data
0.0790648502	to jointly optimize
0.0790600970	arbitrary set of
0.0790583784	topic modeling with
0.0790551236	the formal
0.0790485028	improves performance on
0.0790394561	\ frac m
0.0790328548	many scientific
0.0790277816	an actor
0.0790173494	grow with
0.0790145070	a whole
0.0790100886	potential for
0.0790011754	difficult to use
0.0789973878	proposed to use
0.0789958709	deterioration in
0.0789944155	the inception
0.0789942691	by generalizing
0.0789918301	only 5
0.0789915672	classical problem of
0.0789874577	system states
0.0789813314	a single policy
0.0789722391	policies for
0.0789667574	adopted to
0.0789624041	needed in
0.0789569523	analysis of training
0.0789512170	each batch
0.0789484518	algorithm to improve
0.0789458874	such as latent dirichlet allocation
0.0789441028	due to inherent
0.0789421460	deal with data
0.0789406197	a downstream task
0.0789385000	_ t \
0.0789364688	fit well
0.0789244692	the logical
0.0789208867	a substantial improvement
0.0789137994	an empirical risk
0.0789135870	rapid growth of
0.0789048494	addressed using
0.0789025575	$ estimation
0.0788966397	some sense
0.0788961202	by analysing
0.0788956775	a powerful paradigm
0.0788903637	a policy
0.0788833275	relevance of
0.0788817594	line of
0.0788788136	becomes large
0.0788718712	the algorithm's performance
0.0788709671	two aspects
0.0788701347	unification of
0.0788601802	problem of training
0.0788540769	a selection
0.0788513425	the balance
0.0788290898	leakage from
0.0788072244	arise in many
0.0788068802	machine learning algorithms on
0.0788041241	an array of
0.0787937279	to draw
0.0787858982	a held out
0.0787803007	study of
0.0787744253	each time series
0.0787718193	the integrand
0.0787710204	the objective
0.0787707457	learning without
0.0787640583	then derive
0.0787597921	designed by
0.0787588323	the premise
0.0787586839	scale well
0.0787437687	the regression coefficients
0.0787387659	to do
0.0787295277	a hypersphere
0.0787235324	numerical method for
0.0787216684	the frequent
0.0787183123	to strike
0.0787152260	by solving
0.0787139472	to suit
0.0787136068	framework for high
0.0787073000	a robust
0.0787061989	the analytic
0.0786993953	the graph neural networks
0.0786939901	adequacy of
0.0786921366	comparison of different
0.0786844931	the advantages of
0.0786830785	tasks with
0.0786820266	two large scale
0.0786772919	a key insight
0.0786686703	the directed
0.0786625774	points into
0.0786535438	machine learning problems such as
0.0786532961	information across
0.0786477786	to beat
0.0786472558	the intensity
0.0786367941	problem of low
0.0786343853	convex hull of
0.0786313026	a novel method
0.0786279768	the regularity
0.0786207436	a knowledge
0.0786184267	almost linear
0.0786145382	the last layer
0.0786009158	specified by
0.0785926637	a weighted sum of
0.0785889486	function with respect
0.0785888277	attractive for
0.0785840888	a survival
0.0785742681	architecture based on
0.0785732810	a supervised machine learning
0.0785729407	model for large
0.0785701036	a greedy search
0.0785671336	an analysis
0.0785553524	degradation in
0.0785414379	in statistical learning theory
0.0785367729	incidence of
0.0785290633	the full data set
0.0785283481	algorithms for sparse
0.0785275816	the input size
0.0785209330	cohort of
0.0785135221	current work
0.0785028949	first line
0.0785005175	formulae for
0.0784983578	n \ ln
0.0784919093	a company
0.0784883167	these extensions
0.0784864177	by performing
0.0784813853	and svhn datasets
0.0784686101	a subnetwork
0.0784630961	computed with
0.0784487442	the divide and conquer
0.0784484392	some constant
0.0784394206	second result
0.0784370180	algorithm proposed by
0.0784296753	a capacity
0.0784201576	the condition number
0.0784182302	settings such as
0.0784125406	evidence for
0.0784111715	n \
0.0784101366	more principled
0.0784065275	a theoretical foundation
0.0784033670	a tighter
0.0784000903	the right
0.0783903787	non linear networks
0.0783850040	surge of
0.0783776972	comprises of
0.0783757661	regression problems with
0.0783753312	a coarse to fine
0.0783753301	the amount of
0.0783743795	analysis of deep
0.0783707595	largely due
0.0783686035	the german
0.0783622142	other well known
0.0783617585	appears as
0.0783598094	the anchor
0.0783586874	an internal model
0.0783586681	$ approximation
0.0783510741	the previous state of
0.0783506661	still require
0.0783418200	a content
0.0783396529	4 \
0.0783321810	basic idea of
0.0783211447	interplay of
0.0783173209	this topic
0.0783048524	a difficult problem
0.0783033461	the non linearity
0.0782949861	a labeled
0.0782939801	by fixing
0.0782915064	this environment
0.0782814712	$ sense
0.0782754138	results about
0.0782731710	the bias variance
0.0782700960	different regimes
0.0782679450	and greater
0.0782669510	most successful
0.0782608355	efficiency and efficacy of
0.0782577724	the information
0.0782556013	problem of modeling
0.0782530809	a state of
0.0782521157	\ 1
0.0782475985	constrained to
0.0782415005	adaptivity to
0.0782393872	the machine learning
0.0782386527	this quantity
0.0782296816	computationally efficient and
0.0782226746	better predictive
0.0782205352	observed during
0.0782194709	this kind of
0.0782136821	alterations in
0.0782134581	solving non
0.0782108832	an undesired
0.0782092659	an adversarial loss
0.0782075315	a fine tuning
0.0782046544	a prototype
0.0782036784	seen during
0.0782022330	the player's
0.0782003186	leads to state of
0.0781979196	problem of stochastic
0.0781957839	calculus of
0.0781716592	decreases as
0.0781588778	the scaled
0.0781566203	than previous approaches
0.0781526666	the tedious
0.0781500377	amplification by
0.0781479029	presented to
0.0781438202	other clustering methods
0.0781431703	structure and parameters of
0.0781422676	task in machine
0.0781393539	a data matrix
0.0781373848	as input
0.0781329702	to cope with
0.0781309216	a reinforcement learning
0.0781189103	in detail
0.0781170170	the existing methods
0.0781158088	this paper reports
0.0781111673	entirely new
0.0781086620	problems arise in
0.0781041292	methods do not consider
0.0780997540	categorization of
0.0780973359	different architectures
0.0780957736	a trained network
0.0780938671	the conversion
0.0780845546	depth two
0.0780684333	the student model
0.0780664643	fast algorithm for
0.0780652692	t \ sqrt
0.0780600774	further reduce
0.0780583095	the differential equation
0.0780513584	a predictor
0.0780488557	unknown but
0.0780473162	error in
0.0780445875	across five
0.0780429985	a pivotal role in
0.0780428692	to inject
0.0780409560	no noise
0.0780390071	the art technique
0.0780242542	also implies
0.0780240469	purpose of
0.0780150037	decomposed as
0.0780111171	derived under
0.0780038718	by exploring
0.0779983324	approach for unsupervised
0.0779974267	to generate adversarial
0.0779970890	to produce accurate
0.0779928405	as accurate as
0.0779862720	potential solution to
0.0779845745	vicinity of
0.0779832547	as early as
0.0779808470	different representations
0.0779742366	diagnosis of
0.0779686715	to quickly adapt
0.0779665374	the training procedure
0.0779631025	possibly non
0.0779570489	fundamental role in
0.0779535341	algorithm to perform
0.0779524253	variety of synthetic and
0.0779510149	a later
0.0779505675	signal from
0.0779355099	an appropriately
0.0779125286	a resampling
0.0779073473	sub model
0.0779062817	seconds on
0.0779047474	the representative
0.0779037883	days of
0.0778918869	than regular
0.0778896129	approach to obtain
0.0778873819	theoretic framework for
0.0778867735	neural network based on
0.0778725129	on real world data sets
0.0778594692	the flat
0.0778499579	summarized as
0.0778408994	the global minima
0.0778345359	to gather
0.0778241896	greedy algorithms for
0.0778236172	the art reinforcement learning
0.0778228659	a distributed setting
0.0778204948	often come
0.0778183265	an eye
0.0778153715	the reproducing kernel hilbert
0.0778136730	reported by
0.0778108575	to derive
0.0778058493	the scaling
0.0778036659	many classification problems
0.0777965435	the stochastic setting
0.0777888001	various sizes
0.0777886574	much more accurate
0.0777728112	by extracting
0.0777711346	$ p n
0.0777604856	input x
0.0777595044	either directly
0.0777582442	these requirements
0.0777505813	a quite
0.0777480019	new layer
0.0777305699	a small number of labeled
0.0777286047	allows for
0.0777284554	outperforms several
0.0777214373	this paper contributes
0.0777200823	the key issue
0.0777059454	distributions p
0.0777005445	the perceptual
0.0776962408	order to get
0.0776962122	$ \ x
0.0776921487	differential privacy for
0.0776680450	also reveals
0.0776678399	avenues of
0.0776671118	$ g =
0.0776627657	the trust
0.0776627657	the convexity
0.0776626011	both supervised and unsupervised
0.0776606697	problem of optimal
0.0776550520	accuracy of classification
0.0776539936	by manipulating
0.0776496986	attributes such as
0.0776481460	good solutions
0.0776465148	criterion based on
0.0776457784	new algorithms
0.0776432681	the art adversarial
0.0776337942	a novel classification
0.0776241186	the main contribution
0.0776194634	the localized
0.0776096862	a kronecker product
0.0776085918	arise in machine
0.0776022272	than traditional
0.0775984818	a _i
0.0775953957	justification of
0.0775950087	a general formulation
0.0775945822	this approach enables
0.0775944585	the collaboration
0.0775936921	fidelity models
0.0775898814	100 accuracy
0.0775808744	the inner workings
0.0775741336	new types
0.0775721332	a reference
0.0775707374	detection in networks
0.0775599542	algorithm for efficient
0.0775595447	art performance in many
0.0775559907	a novel adaptive
0.0775559003	^ 2 n
0.0775558942	e \ mathbf
0.0775522348	an algorithmic framework
0.0775470515	form of data
0.0775460787	employment of
0.0775431049	pattern of
0.0775393232	novel self supervised
0.0775382013	a vast
0.0775367004	an integer
0.0775356184	for image classification tasks
0.0775354359	the performance
0.0775315601	fine tuning for
0.0775170132	the triangle
0.0775149027	from different sources
0.0775079606	a differentiable
0.0775047916	extensively studied for
0.0774948713	the continuum
0.0774863258	problems with high
0.0774844901	feature extractor for
0.0774814167	into two components
0.0774793930	impressive performance in
0.0774743723	by bringing
0.0774736966	$ prior
0.0774718893	$ 1 \ epsilon
0.0774650852	algorithms suffer from
0.0774524295	good accuracy
0.0774505297	similarity between data
0.0774426459	difficult due
0.0774293004	not sufficiently
0.0774263805	a classification task
0.0774233208	by relating
0.0774215707	all data points
0.0774166505	six benchmark
0.0774161369	the art optimization
0.0774151639	applied to multi
0.0774064927	a random
0.0774043825	the configuration
0.0773993829	certain assumptions
0.0773949819	a two phase
0.0773843999	the tree structure
0.0773619672	specific case of
0.0773605448	a more
0.0773597173	against outliers
0.0773588041	the singular values
0.0773535089	techniques rely on
0.0773484518	model to address
0.0773469231	approach to approximate
0.0773443866	conduct several
0.0773315714	the input matrices
0.0773228783	a matrix
0.0773188060	origins of
0.0773128655	the anomalous
0.0773128045	the first attempt
0.0773007151	a large volume
0.0773004321	a weighted
0.0772896615	body of work on
0.0772813422	the formulation
0.0772811476	generated via
0.0772756216	apply to
0.0772691972	the top down
0.0772658204	explosion in
0.0772608532	the low dimensional
0.0772539236	all non
0.0772420608	an entity
0.0772360669	potentially better
0.0772354192	the standardized
0.0772351313	the spectral domain
0.0772341901	to efficiently learn
0.0772331766	a discriminator
0.0772252202	several directions
0.0772208970	sampling algorithms for
0.0772194205	assist in
0.0772149123	a distributional
0.0772081802	example based
0.0772081650	effective method for
0.0772048709	terms of efficiency
0.0772027418	a bag
0.0772017350	the memorization
0.0772002695	the job
0.0771989988	a dataset
0.0771907769	analog to
0.0771905813	specified in
0.0771905813	the name
0.0771841359	task of
0.0771686703	the nature
0.0771627651	number of online
0.0771579941	number of studies
0.0771536582	the most effective
0.0771465489	by regularizing
0.0771422684	selection based on
0.0771334794	formulated in terms of
0.0771281901	the data generating
0.0771275087	the scientific
0.0771203946	a teacher
0.0771078992	and real world data demonstrate
0.0771050935	with low computational
0.0771028845	these kernels
0.0771020559	neurons in
0.0771012645	the complexity of
0.0770980735	linear value
0.0770976176	by reviewing
0.0770910109	d \ to \
0.0770877854	in modern machine learning
0.0770853343	provided for
0.0770833576	to update
0.0770804637	by connecting
0.0770801544	the cyclic
0.0770635689	observed at
0.0770608337	efficiency of learning
0.0770608322	rates under
0.0770595200	against baselines
0.0770527744	hyper parameters for
0.0770470527	diameter of
0.0770415652	fundamental problem in
0.0770388791	or worse
0.0770350696	thickness of
0.0770314167	a much broader
0.0770312916	a period
0.0770294747	a saliency
0.0770286090	2d convolutional
0.0770281497	presence of random
0.0770204566	a computationally tractable
0.0770190008	feature selection based on
0.0770085259	the expense of
0.0770047474	the feasible
0.0770011986	the advent
0.0769944252	theory for
0.0769842848	a significant role
0.0769670764	iterations than
0.0769623243	paramount to
0.0769529311	the protein
0.0769493988	\ _ i
0.0769477608	patients from
0.0769461335	any continuous
0.0769450661	training example
0.0769266849	$ p ^
0.0769264845	presence of large
0.0769258372	also confirm
0.0769111407	a voice
0.0769073638	succeed in
0.0769028127	the art methods on
0.0768985595	the recurrent neural network
0.0768962329	$ way
0.0768952144	disadvantages of
0.0768899027	on several benchmarks
0.0768815029	the following
0.0768800651	the uci machine learning
0.0768782953	although many
0.0768768042	the lens
0.0768704362	an area
0.0768617351	a flow based
0.0768586701	natural framework for
0.0768570524	neural network for
0.0768458062	does not increase
0.0768436804	the recommended
0.0768402776	add on
0.0768401059	between groups
0.0768356373	factors such as
0.0768313374	space of possible
0.0768311445	show experimentally
0.0768204527	important problem in
0.0768122612	this field
0.0768119230	used to infer
0.0768109500	heuristics such as
0.0768103936	the large deviation
0.0768103399	the expected risk
0.0768050987	number of observed
0.0767968807	even outperform
0.0767920342	the training
0.0767860647	many practical
0.0767770003	between clusters
0.0767673883	to learn representations
0.0767621756	not valid
0.0767592557	the electrical
0.0767502113	a recent
0.0767480880	d \
0.0767280575	objects such as
0.0767223710	the evolutionary
0.0767223710	the composition
0.0767221490	regularization method for
0.0767182615	each partition
0.0767150832	in order to create
0.0767136068	methods for high
0.0767074664	as follows
0.0766983905	outside of
0.0766957236	auto encoder for
0.0766920422	number of time series
0.0766887932	better understanding
0.0766842964	a zero shot
0.0766808889	the sensitive attribute
0.0766734139	the late
0.0766613362	performance on synthetic
0.0766611302	explicitly models
0.0766599571	or otherwise
0.0766541019	to secure
0.0766519577	a relevance
0.0766512700	well known benchmark
0.0766512399	a bipartite graph
0.0766436703	the coordinate
0.0766430014	the doubly robust
0.0766379488	this version
0.0766337655	a latent
0.0766334739	only if
0.0766289074	evaluated over
0.0766241473	the gradient descent algorithm
0.0766205340	powerful technique for
0.0766040538	the respective
0.0765913046	a machine
0.0765867004	to screen
0.0765791771	to mention
0.0765791717	these representations
0.0765767209	the asymptotic normality
0.0765735147	adaptability to
0.0765713336	the sharing of
0.0765707336	more representative
0.0765702919	generalize well to
0.0765622402	the stage
0.0765557800	do not capture
0.0765527199	recently found
0.0765511079	d \ epsilon ^
0.0765471969	open problem of
0.0765354359	the dataset
0.0765297550	regularizer based on
0.0765266148	the impressive
0.0765261673	learning rates for
0.0765164253	an urgent
0.0765118215	^ p \
0.0765100993	datasets consisting of
0.0765073381	needs for
0.0765017937	uncertainty estimation for
0.0765000568	new concept
0.0764982917	metric between
0.0764955628	from previous tasks
0.0764944155	a split
0.0764784335	the feature extractor
0.0764779200	performance evaluation of
0.0764735561	the art policy
0.0764697819	only requiring
0.0764677815	hinge on
0.0764647489	similar way
0.0764609718	a principled way
0.0764561989	the redundant
0.0764561989	the distortion
0.0764558205	concavity of
0.0764537279	a basic
0.0764486541	significant improvement on
0.0764432075	first define
0.0764414101	used to determine
0.0764380226	new knowledge
0.0764344218	a similar
0.0764315456	one iteration
0.0764315131	a generalization of
0.0764125286	a rotation
0.0764107043	results on benchmark
0.0764097448	loss value
0.0764096180	an array
0.0764064927	a high
0.0763995257	learning problem into
0.0763969975	a ground
0.0763916807	\ widehat \
0.0763824897	the e commerce
0.0763794151	a well studied
0.0763772494	not accessible
0.0763761390	performance compared with
0.0763728655	the curvature
0.0763719325	two well known
0.0763695624	the inverse problem
0.0763662571	a distribution free
0.0763647029	variables within
0.0763635028	as if
0.0763634129	these advances
0.0763628610	a node's
0.0763578771	the underlying probability
0.0763490802	number of objectives
0.0763432887	the implicit
0.0763341275	study to evaluate
0.0763337078	to approximately solve
0.0763297617	the lottery ticket
0.0763262750	pertinent to
0.0763226665	a two player
0.0763226211	many classes
0.0763193809	jointly with
0.0763192858	hard to find
0.0763186555	a well behaved
0.0763124312	np hard to
0.0763084161	algorithm for robust
0.0763049189	number of unknown
0.0763034789	such as adagrad
0.0762996028	the full information setting
0.0762992247	a cornerstone
0.0762954601	conditionally on
0.0762899317	a new approach
0.0762825686	a reasonable
0.0762750041	new ideas
0.0762722895	several orders
0.0762714507	a supervised manner
0.0762665846	by stacking
0.0762646231	a target distribution
0.0762633409	the message passing
0.0762611204	well known image
0.0762505578	of machine learning research
0.0762501615	method allows
0.0762436632	learning with multiple
0.0762423619	a theoretical guarantee
0.0762417540	the bethe free
0.0762382442	the inference phase
0.0762359979	comparable accuracy to
0.0762283818	an era
0.0762161272	applied on top of
0.0762115190	the art on
0.0762007647	a road
0.0761944793	the art performance in
0.0761905290	medium to
0.0761810750	solely using
0.0761795549	p \ times
0.0761778751	to automatically identify
0.0761754512	contain many
0.0761730104	the situation
0.0761687625	a new method called
0.0761678692	a solid
0.0761588666	from natural language
0.0761515409	other researchers
0.0761479029	presented for
0.0761288445	a demonstration
0.0761283194	the unseen
0.0761210171	all instances
0.0761186931	m ^ *
0.0761182555	employed as
0.0761176364	a convex
0.0761131309	a given dataset
0.0761076651	system at
0.0760999149	m ^ \
0.0760996618	oblivious to
0.0760992157	varieties of
0.0760900004	to shift
0.0760861668	best performance
0.0760859313	order to develop
0.0760826853	the input images
0.0760814909	approaches in terms
0.0760804685	matrix factorization with
0.0760756824	the relatedness
0.0760711089	a prominent
0.0760698301	this performance gap
0.0760638541	to rectify
0.0760489651	the bayes optimal
0.0760473269	the landmark
0.0760465287	a central limit
0.0760411977	the model selection
0.0760390970	the first place
0.0760371831	the new method
0.0760361528	on synthetic and real world data
0.0760259730	while yielding
0.0760239944	difference of
0.0760141370	the mixture components
0.0760137206	evaluation methods for
0.0760090255	the threshold
0.0760063560	this paper offers
0.0759888373	much attention recently
0.0759869392	different features
0.0759861191	$ time
0.0759827273	an interpretability
0.0759768303	bayesian optimization via
0.0759758058	a separate
0.0759708594	the practitioner
0.0759708594	the famous
0.0759699599	this hybrid
0.0759624902	systems with
0.0759600639	learning model for
0.0759575048	these features
0.0759545603	a data driven approach to
0.0759493498	bounded number of
0.0759470040	only requires
0.0759462741	the new algorithm
0.0759410267	to help
0.0759387932	less effective
0.0759373373	present three
0.0759354244	a way
0.0759337765	length of
0.0759301870	a novel problem
0.0759256807	transformation of
0.0759173795	charge of
0.0759138838	conditioned by
0.0758860234	a smoothness
0.0758848707	an essential role in
0.0758775380	a data point
0.0758719902	does not satisfy
0.0758714607	more appropriate
0.0758692179	statistical complexity of
0.0758680962	j \
0.0758592010	the value of
0.0758591476	the click
0.0758522287	deep convolutional neural network for
0.0758465881	complexity than
0.0758449543	deep learning framework to
0.0758374684	methods for multi
0.0758358455	compare various
0.0758316671	the art networks
0.0758247802	summary statistics of
0.0758192497	a target network
0.0758101634	introduce three
0.0758047500	much more challenging
0.0758024295	very accurate
0.0758018909	the number of channels
0.0757975936	nn models
0.0757882620	analysis of real
0.0757867334	a collaborative filtering
0.0757789384	the kernel function
0.0757755375	containing only
0.0757733801	order to compute
0.0757685324	popular algorithm for
0.0757474971	the bottom up
0.0757346069	this tool
0.0757311334	ability to generalize to
0.0757304103	i =
0.0757303375	data structure for
0.0757253088	certain scenarios
0.0757211112	a choice
0.0757168941	operating in
0.0757142854	for multi label
0.0757140206	significantly different from
0.0757093416	important problems in
0.0757067472	the stochasticity
0.0757065231	work presents
0.0757039405	flatness of
0.0756915189	while producing
0.0756899184	algorithms for distributed
0.0756708876	vectors into
0.0756706590	these domains
0.0756689636	novel attack
0.0756669241	used to detect
0.0756553095	element of
0.0756549732	to form
0.0756526092	performance similar to
0.0756499671	one parameter
0.0756485613	method to model
0.0756472818	the optimal parameters
0.0756403140	and real world datasets demonstrate
0.0756395308	from real world data
0.0756350191	\ frac | \
0.0756300653	the current study
0.0756283456	different metrics
0.0756208558	$ +
0.0756201418	difficult for
0.0756193909	provide insights for
0.0755997429	the material
0.0755966034	diversity of
0.0755688304	a real
0.0755668235	further improved
0.0755638014	the unlabeled data
0.0755584172	by simply
0.0755553524	sublinear in
0.0755534472	the encoder
0.0755474652	improving on
0.0755449681	adopted for
0.0755421918	a comprehensive set of experiments
0.0755406015	sketch of
0.0755391252	data comes from
0.0755375893	a reduced number
0.0755361941	approach outperforms other
0.0755354854	to extend
0.0755250831	than previous
0.0755242703	an anomaly detection
0.0755225468	the adversary
0.0755222557	accelerated by
0.0755201321	probability bounds on
0.0755182953	flexibility in
0.0755158552	items based on
0.0755122831	rates than
0.0755111252	the table
0.0755108924	further research
0.0755039924	even better
0.0754984530	do not depend on
0.0754975217	powerful class of
0.0754966992	of adversarial machine learning
0.0754960978	and practically
0.0754903801	into subsets
0.0754867262	the art graph
0.0754866616	real world time
0.0754848492	while taking into account
0.0754837167	class of graphical models
0.0754784177	most common
0.0754753359	necessity for
0.0754733779	number of sensors
0.0754731844	other nodes
0.0754681982	to justify
0.0754665704	class of kernels
0.0754541395	provides more accurate
0.0754532407	the undesirable
0.0754452522	increasingly popular in
0.0754437197	an expensive
0.0754415524	the test error
0.0754361840	the within cluster
0.0754338230	the last iterate
0.0754304543	complexity analysis of
0.0754255050	the k means algorithm
0.0754142507	the chinese restaurant
0.0754115451	the art embedding
0.0754108405	both linear
0.0754066081	the global optima
0.0753958268	work proposes
0.0753936703	the progress
0.0753926681	for ood detection
0.0753922112	the agreement
0.0753901363	a well established
0.0753894484	different communities
0.0753871904	the rule
0.0753862097	several works
0.0753774679	first build
0.0753745125	any training
0.0753703946	the optimum
0.0753605062	a weighted sum
0.0753604550	lot of work
0.0753534807	configuration of
0.0753477710	convolutional neural network with
0.0753461111	to pursue
0.0753446121	the maximal
0.0753385792	gained by
0.0753341922	existing algorithms for
0.0753334594	another popular
0.0753245637	shifts in
0.0753221127	the art classification
0.0753189554	the posterior variance
0.0753147079	important component of
0.0753067948	each vector
0.0753067653	do not always
0.0753037338	accuracy against
0.0753012130	a new way to
0.0752940031	convergence of stochastic
0.0752826371	a mixture of gaussians
0.0752820842	multitask learning with
0.0752760425	the teacher's
0.0752542806	an underlying
0.0752529185	inner product between
0.0752525711	method to address
0.0752488428	a public dataset
0.0752426364	the source
0.0752416788	a perfect
0.0752404851	medical time
0.0752341676	each state
0.0752319849	the short term
0.0752244893	significant difference in
0.0752059721	a theoretical framework
0.0751901625	many applications including
0.0751900698	the svd
0.0751846338	a computer vision
0.0751776020	switch to
0.0751761833	used to identify
0.0751731187	to large data sets
0.0751722053	application of machine
0.0751707199	value distribution
0.0751663111	same accuracy
0.0751649407	other data points
0.0751643119	an interval
0.0751472558	the simpler
0.0751402227	the art feature
0.0751305527	an adverse
0.0751250656	a special
0.0751215607	machine learning framework for
0.0751125276	identify two
0.0751102547	objects of interest
0.0751099481	the promise
0.0750997540	indicator of
0.0750981117	a x
0.0750891706	learn to
0.0750765587	each community
0.0750686456	different scenarios
0.0750603836	the forefront
0.0750575828	$ convergence
0.0750473269	the cubic
0.0750435739	techniques in machine
0.0750417844	the intervention
0.0750195716	to compensate
0.0750171244	the network outputs
0.0750131116	to appear
0.0750120929	larger number of
0.0750089906	the target dataset
0.0750031242	based model for
0.0749909887	some insights
0.0749902270	a chemical
0.0749861386	provide experimental results to
0.0749794102	set of methods
0.0749783576	$ dimensional feature
0.0749736434	records from
0.0749705402	$ \ mathcal r
0.0749642526	data consist of
0.0749560869	more common
0.0749560763	uncertainty in neural
0.0749541770	using simulations
0.0749506557	the stochastic blockmodel
0.0749414419	to ground
0.0749369931	in order to deal
0.0749349914	$ f ^
0.0749325566	challenge in
0.0749317931	fit into
0.0749244802	the hierarchical
0.0749107627	efficient learning of
0.0749040579	to look
0.0748993909	not easy
0.0748975963	vision tasks such as
0.0748882934	imitation learning from
0.0748860676	various situations
0.0748767810	scope of
0.0748748903	auto encoders for
0.0748746796	by taking advantage of
0.0748728782	power consumption of
0.0748727151	excess risk of
0.0748719363	a rule based
0.0748690601	a health
0.0748661389	random subset of
0.0748617320	machine learning tasks such
0.0748575825	performance close to
0.0748543159	enables users to
0.0748511186	a target class
0.0748439164	datasets to validate
0.0748432887	the strong
0.0748414544	russo and
0.0748298724	work well
0.0748233122	particularly on
0.0748169747	the analyst
0.0748157668	prove useful
0.0748155913	challenges associated with
0.0748130879	to jointly learn
0.0748084013	set of latent
0.0748064221	an information
0.0748039393	the registration
0.0747990127	participating in
0.0747934174	a truncated
0.0747899149	the inductive bias
0.0747829549	$ vertices
0.0747825360	algorithm consists of
0.0747768964	a tumor
0.0747758954	the replacement
0.0747706825	order to address
0.0747643903	done using
0.0747546544	a secondary
0.0747544324	the recall
0.0747476671	novel deep learning framework
0.0747447907	under minimal
0.0747334684	suffices for
0.0747331766	a learner
0.0747298613	the empirical distribution
0.0747248129	the communication bottleneck
0.0747224210	or more
0.0747222915	the sure
0.0747184556	a set of particles
0.0747132247	the dictionary
0.0747100835	full access
0.0747005445	the directional
0.0746953428	speed up in
0.0746932472	in order to enhance
0.0746907735	the transformer
0.0746896448	method for data
0.0746893219	patterns within
0.0746888477	new samples
0.0746847241	a training dataset
0.0746841748	approach applies to
0.0746835323	the adjusted
0.0746768756	a single view
0.0746717111	model to approximate
0.0746608982	particularly well suited for
0.0746589028	for decoding
0.0746568201	the convergence of
0.0746516900	residual sum of
0.0746463253	this hypothesis
0.0746444741	the k
0.0746386184	the location
0.0746386097	deep networks with
0.0746357140	become more
0.0746354696	performance competitive with
0.0746337655	the future
0.0746337655	a dynamic
0.0746326458	performance of gnns
0.0746305749	a document
0.0746282003	statistical model for
0.0746217577	the art recommendation
0.0746166671	for speaker recognition
0.0746156904	class of probabilistic
0.0746145450	the classifier
0.0746082446	the perturbed
0.0746057408	analogy to
0.0746013485	the optimal transport
0.0746008216	discuss possible
0.0745820064	performed in
0.0745643650	successfully used in
0.0745639556	the mean field
0.0745570133	learned by deep
0.0745415353	data set in
0.0745358596	valid for
0.0745335168	the supervision
0.0745303086	a quantization
0.0745260542	a rich set of
0.0745205739	variety of complex
0.0745198291	algorithms for deep
0.0745186605	flow through
0.0745167428	the uncertain
0.0745152426	a succinct
0.0745135308	the time consuming
0.0745073991	$ optimal policy
0.0745052679	$ layer
0.0745049311	signs of
0.0744967347	a list
0.0744950733	efficient exploration of
0.0744743827	challenging problem due to
0.0744723119	several synthetic and real world
0.0744577921	a different perspective
0.0744506445	successfully used for
0.0744407724	in academia
0.0744383069	to achieve near optimal
0.0744343434	made for
0.0744336401	chosen from
0.0744257464	the resilience
0.0744254975	than baseline methods
0.0744235371	performances than
0.0744186703	the competitive
0.0744173300	reconstruction from
0.0744125286	a transferable
0.0744079985	by evaluating
0.0744052985	the relaxed
0.0744035070	learning for classification
0.0744028795	a compressive
0.0744012273	the symbolic
0.0743995288	other domains
0.0743959476	the canonical
0.0743942211	networks with binary
0.0743883351	the clustered
0.0743882868	technique for learning
0.0743873919	similar performance as
0.0743810572	a powerful technique
0.0743743855	well beyond
0.0743712887	a new lower bound
0.0743690601	the pair
0.0743634253	the validity of
0.0743544324	the sound
0.0743514671	for defining
0.0743466775	problem with respect
0.0743457072	number of simulations
0.0743447502	trained over
0.0743438319	further reduces
0.0743431835	domain adaptation with
0.0743409224	strategies such as
0.0743392909	changes across
0.0743220040	also derive
0.0743146229	better capture
0.0743003068	increased by
0.0742977006	neural network with
0.0742930512	^ t \
0.0742924965	draws on
0.0742915575	better classification accuracy
0.0742899465	| =
0.0742888924	the semi supervised
0.0742875380	the energy function
0.0742849899	then formulate
0.0742817702	especially if
0.0742659910	the magnetic field
0.0742613901	between variables
0.0742600542	by aligning
0.0742518927	without making
0.0742423579	soon as
0.0742385812	regret analysis of
0.0742318022	^ 2 \
0.0742273801	a gain
0.0742259066	neural network approach to
0.0742248868	extensive experiments on various
0.0742229543	in real time
0.0742217810	architectures trained on
0.0742209021	variety of data
0.0742153044	simple way
0.0742121476	new estimators
0.0742101143	laws of
0.0742066615	paper aims at
0.0742061989	the blind
0.0741952210	the successive
0.0741916492	not require
0.0741893340	$ m n
0.0741817372	not well suited
0.0741713050	scales well to
0.0741704689	the number of hidden units
0.0741658228	the implication
0.0741658187	an identity
0.0741647098	applicable to other
0.0741579642	differential equations for
0.0741479029	evidence of
0.0741469485	especially for large scale
0.0741468325	to endow
0.0741445462	the exclusive
0.0741439953	seminal work of
0.0741412577	learning to identify
0.0741385600	this loss function
0.0741374600	computationally expensive or
0.0741352132	this formulation
0.0741246246	factors like
0.0741109133	these changes
0.0741077156	the key challenges
0.0741065340	solely by
0.0741023240	the proposed method significantly
0.0741017250	a principled approach
0.0740968475	different loss
0.0740901506	the raw data
0.0740865976	last but not
0.0740863280	active learning via
0.0740829295	linear ones
0.0740806733	the equation
0.0740792009	the classification
0.0740792009	the stochastic
0.0740776910	theoretical results on
0.0740585320	detection in
0.0740584772	estimators based on
0.0740468830	number of support
0.0740427727	a direct
0.0740424766	a stable
0.0740417844	the position
0.0740343145	set of conditions
0.0740296688	both low
0.0740193069	the task
0.0740125337	trained with stochastic
0.0740047474	the optimisation
0.0739921098	partition of
0.0739787163	data into
0.0739699032	an observation
0.0739683233	entirely in
0.0739683153	to jointly estimate
0.0739660521	at different
0.0739583891	analysis of large
0.0739569013	also compare
0.0739543916	first formulate
0.0739505125	two contributions
0.0739378241	in hyperbolic space
0.0739366675	a probability density
0.0739356717	introduced as
0.0739316797	similarity across
0.0739276901	a scoring
0.0739258244	the maximum margin
0.0739198143	different stages
0.0739175404	the credit
0.0739108924	most current
0.0739091294	the result shows
0.0739037654	english to
0.0739015954	a differentiable loss
0.0738934647	a large body of
0.0738926318	some general
0.0738926239	modifications of
0.0738904336	tests on
0.0738872484	do not affect
0.0738860234	the window
0.0738715671	a probability measure
0.0738688034	homology of
0.0738679409	structure discovery in
0.0738664207	approximated with
0.0738639724	in part due
0.0738638931	neural networks suffer from
0.0738615204	more useful
0.0738585320	solution of
0.0738548287	the multi modal
0.0738454574	different models
0.0738436804	the educational
0.0738423757	transitions from
0.0738410930	the top k
0.0738179715	linearity of
0.0738141394	captured using
0.0738133343	to direct
0.0738128883	$ p \ gg
0.0738123057	to base
0.0738076490	a fixed set of
0.0738068815	the growth rate
0.0738044831	the large sample
0.0738031264	a recent line of work
0.0738019007	progress in deep
0.0737949861	a speed
0.0737882620	approach to multi
0.0737858547	provide guarantees on
0.0737854192	different time points
0.0737767972	a priori information
0.0737710204	the global
0.0737668653	trained to
0.0737633018	the optimal classifier
0.0737622992	very weak
0.0737611800	presence of multiple
0.0737550373	the number of bits
0.0737546573	these systems
0.0737353840	surface of
0.0737232031	the reality
0.0737230342	a companion
0.0737209855	information from data
0.0737126766	optimization problem with
0.0737105419	does not guarantee
0.0737090975	issues such as
0.0737046482	any kind of
0.0736982267	these studies
0.0736962751	large values of
0.0736945763	to map
0.0736931246	able to infer
0.0736873302	the true state
0.0736870165	gradient descent for
0.0736861344	global structure of
0.0736859736	the local
0.0736828398	this posterior
0.0736818883	guidelines on
0.0736737031	evaluated on three
0.0736683456	algorithm to identify
0.0736678411	some new
0.0736668560	a simple procedure
0.0736664616	add to
0.0736648669	for image classification
0.0736645507	new ones
0.0736574081	a better trade off between
0.0736553216	promising results in
0.0736545764	derived via
0.0736502787	do not scale
0.0736501301	the rating
0.0736449489	a common latent
0.0736448572	the problem of designing
0.0736436703	the line
0.0736396654	the inversion
0.0736392674	asymptotic bounds for
0.0736356532	the communication cost
0.0736317408	sqrt n
0.0736248016	in order to capture
0.0736188706	by merging
0.0736184192	by carefully
0.0736172112	the spherical
0.0736151058	many works
0.0736053191	and strongly convex
0.0736036721	the accelerated
0.0735995896	fairness in
0.0735982691	to communicate
0.0735829230	many existing methods
0.0735791509	provide information about
0.0735728914	a standard
0.0735714858	the proposed defense
0.0735707336	many areas
0.0735645985	become available
0.0735640512	these properties
0.0735582442	computing system
0.0735492767	very efficient
0.0735486095	uncertainty due to
0.0735452791	in order to assess
0.0735420877	to remember
0.0735402361	uniqueness of
0.0735392724	compatibility with
0.0735383896	no worse
0.0735348243	concatenated to
0.0735233774	a flat
0.0735224730	a method for learning
0.0735219114	\ left \
0.0735182526	a neural
0.0735150612	many high dimensional
0.0735140394	practical utility of
0.0735085549	all datasets
0.0735082458	the prediction accuracy
0.0735012026	to elucidate
0.0734944147	more accurate results
0.0734800900	of 21
0.0734770597	a nuclear norm
0.0734768450	causal inference using
0.0734764684	does not seem
0.0734755175	also describe
0.0734708032	and back
0.0734690096	helps to
0.0734686854	set of target
0.0734557765	amount of training data
0.0734431246	able to discover
0.0734425820	a continuous space
0.0734385174	the limiting distribution
0.0734374649	a methodology
0.0734313782	to satisfy
0.0734310369	a new method for
0.0734300105	the squared
0.0734249278	to post
0.0734241913	set of training
0.0734235109	the encoder decoder
0.0734170760	found at
0.0734167502	certain classes
0.0734155608	appeal of
0.0734139581	an important part of
0.0734129291	received from
0.0734029380	determined using
0.0734021186	the non stationarity
0.0733943069	a function
0.0733868029	and real data sets
0.0733819519	a research
0.0733819093	a realistic
0.0733740115	available features
0.0733710769	complexity of deep
0.0733702260	out of distribution tasks
0.0733663986	the influential
0.0733656451	from 2d
0.0733644525	number of real
0.0733627657	the nonnegative
0.0733576417	made significant
0.0733540970	a variational lower
0.0733412733	substantially different
0.0733411880	a positive definite
0.0733251055	time per iteration
0.0733193935	2 \ log
0.0733193332	the contamination
0.0733193332	the hazard
0.0733160136	the peer
0.0733145776	a user defined
0.0733140276	fusion of
0.0733134955	$ rank
0.0733076554	only access
0.0733047121	available dataset
0.0733039683	the 2 wasserstein
0.0733016153	the bit
0.0733004321	a binary
0.0732958544	the penalty parameter
0.0732955246	the abstraction
0.0732951294	promising alternative to
0.0732844765	a multi objective optimization
0.0732777586	behavior in
0.0732739857	outputs of
0.0732711993	in practical settings
0.0732657474	the null
0.0732617544	a face
0.0732584959	the classic
0.0732543335	energy consumption of
0.0732540370	the mean squared error
0.0732419355	heuristics for
0.0732371782	the strength
0.0732347207	a tuning parameter
0.0732299068	the time needed
0.0732284288	dominance of
0.0732234618	a non asymptotic
0.0732151170	a first step
0.0732120724	than 100
0.0732117930	detect changes
0.0732116518	different distributions
0.0732101143	pool of
0.0732078525	yet still
0.0732074200	the information theoretic
0.0732011638	competitive with other
0.0731953733	do not incorporate
0.0731953675	to transfer
0.0731926871	a cognitive
0.0731900698	the neuron
0.0731751498	do so by
0.0731715028	the most suitable
0.0731700674	the latent representation
0.0731641497	zero or
0.0731603115	a doubly robust
0.0731532591	help with
0.0731491396	the process of
0.0731473650	a low rank matrix from
0.0731472558	the disentangled
0.0731463317	do not contain
0.0731398347	a connection
0.0731307774	the disentanglement
0.0731279463	more abstract
0.0731267810	volumes of
0.0731219478	one hand
0.0731219078	crucial in
0.0731146756	the provided
0.0731109860	a desired
0.0731093355	this work addresses
0.0731086099	the demonstration
0.0731043537	the empirical
0.0731035486	the hamming distance
0.0731003983	transition from
0.0730981780	novel methods
0.0730950968	prediction task on
0.0730921542	a novel multi task
0.0730917242	cross validation on
0.0730894539	powerful approach for
0.0730869879	two popular
0.0730813797	those methods
0.0730591535	not sufficient
0.0730585320	potential of
0.0730515714	improvement over state of
0.0730498914	\ frac t
0.0730449861	the employed
0.0730445005	overview on
0.0730408203	an efficient approximation
0.0730358185	an understanding
0.0730357796	working in
0.0730308615	size n
0.0730201000	the teacher model
0.0730099017	and rescue
0.0730089930	mixture of two
0.0730085595	$ \ leq
0.0730064450	on six benchmark
0.0729961987	set of challenging
0.0729950953	the next state
0.0729948753	2 \ times
0.0729944155	the person
0.0729898815	better match
0.0729867350	the unlabelled
0.0729814930	algorithm for stochastic
0.0729808655	to craft
0.0729782469	number of relevant
0.0729782407	to unseen
0.0729713000	each dataset
0.0729617986	while performing
0.0729572873	a typical
0.0729480343	in observational studies
0.0729439721	larger set of
0.0729356717	presented as
0.0729284016	the harmonic
0.0729269107	real world use
0.0729267835	$ score
0.0729210706	a multivariate normal
0.0729201457	differ by
0.0729187351	each pair
0.0729172691	forecasting based on
0.0729153234	a normalization
0.0729138332	some aspects
0.0729107873	the asymptotic regime
0.0729031021	two dimensions
0.0729019586	while others
0.0729010410	more robust than
0.0728952532	f \
0.0728936828	variational autoencoders with
0.0728894857	alternating between
0.0728891897	two concrete
0.0728883770	a lower bound on
0.0728851801	a support
0.0728844344	the whole data set
0.0728828469	a key component of
0.0728808813	new loss function
0.0728782303	computational cost of
0.0728773679	faster than other
0.0728724432	this class of problems
0.0728647325	approximate value
0.0728605196	an important feature
0.0728501080	the mnist and cifar 10 datasets
0.0728492857	a common task
0.0728471819	more detailed
0.0728457072	number of independent
0.0728409170	important step in
0.0728402134	the hessian
0.0728372959	improve performance over
0.0728356831	tested using
0.0728354631	and type ii
0.0728276739	the underlying network
0.0728223055	often required
0.0728216022	often requiring
0.0728199861	the iteration
0.0728188304	the initial
0.0728171385	the government
0.0728128000	the number of blocks
0.0728087059	allow for
0.0728086799	for synthesizing
0.0728062511	to bear
0.0727993626	prior information on
0.0727970144	the stability
0.0727956508	using only
0.0727867271	the cooperative
0.0727846462	a base model
0.0727826316	the error distribution
0.0727816117	anomaly detection on
0.0727799809	to admit
0.0727776156	several metrics
0.0727634641	to depict
0.0727614648	an equilibrium
0.0727486757	more detail
0.0727425247	$ distribution
0.0727351708	usually used
0.0727269860	comprehensive study of
0.0727267271	the longitudinal
0.0727223465	of machine learning problems
0.0727148362	especially in
0.0727120902	the presence
0.0727113657	various conditions
0.0727111663	a consensus
0.0727097357	the inherent structure
0.0727061989	the logic
0.0726959990	recipe for
0.0726845267	a probabilistic programming
0.0726774679	new paradigm
0.0726774655	among nodes
0.0726739087	a convex set
0.0726731618	the interest of
0.0726700460	shed new light on
0.0726657794	the art in
0.0726624285	selection for
0.0726623243	propagated to
0.0726610546	dataset from
0.0726530046	the novelty
0.0726507155	the outer
0.0726497150	highly correlated with
0.0726395042	system size
0.0726373620	$ \ sqrt n
0.0726370538	the noisy case
0.0726337655	a set
0.0726304194	gain over
0.0726209649	surrogates for
0.0726191415	the art supervised
0.0726145450	the gradient
0.0726139824	these priors
0.0726129097	code available
0.0726096354	the smoothed
0.0726042079	for adapting
0.0725949529	a vanilla
0.0725948276	the double descent
0.0725921196	2 \ right
0.0725901506	the surrogate model
0.0725895443	the operator
0.0725767657	or higher order
0.0725767564	theoretical findings with
0.0725726310	features from data
0.0725678387	procedures based on
0.0725670856	and f measure
0.0725615802	approach to building
0.0725544206	three challenges
0.0725531767	deep learning method for
0.0725526527	a parameterized
0.0725502802	a knn
0.0725477288	log likelihood on
0.0725463211	to behave
0.0725452791	in order to minimize
0.0725443980	several challenges
0.0725417075	an activation function
0.0725404944	parameter estimation for
0.0725396299	the title
0.0725311922	and readily
0.0725279263	achievements in
0.0725267142	rationale for
0.0725152683	a fully convolutional neural
0.0725146752	the scientific community
0.0725107018	1 \ leq
0.0725082442	unknown system
0.0725042877	than standard
0.0725001005	disease using
0.0724998381	the problem of classifying
0.0724789209	a nearly
0.0724748383	a discrete set
0.0724676456	mean error
0.0724629072	every local
0.0724611807	the augmented lagrangian
0.0724596718	variant of stochastic
0.0724528957	the learning performance
0.0724511104	the starting point
0.0724493020	both inference
0.0724464590	with provable
0.0724428473	the standard approach
0.0724284016	the factorized
0.0724245637	connected with
0.0724055655	linear regression via
0.0723999520	made about
0.0723976335	the underlying model
0.0723974822	not requiring
0.0723949184	to carry
0.0723927972	$ m ^
0.0723920021	noise into
0.0723857473	favorably with other
0.0723845573	limit theorem for
0.0723839334	in order to detect
0.0723742187	robust estimation of
0.0723713871	still achieves
0.0723686839	the most salient
0.0723675818	develop new
0.0723591547	better representation
0.0723546016	the excess
0.0723382793	d ^ *
0.0723358433	these complex
0.0723342464	work explores
0.0723304328	a large number of parameters
0.0723298523	an in depth analysis
0.0723280048	to occur
0.0723263425	the limitation
0.0723175402	to reason
0.0723156909	energy efficiency in
0.0723150757	a particular instance
0.0723111061	drawing from
0.0723087454	optimal up to
0.0723036860	the primary task
0.0723028108	exist for
0.0723013994	out of sample performance
0.0723004321	the previous
0.0722906206	a heuristic
0.0722873427	arise as
0.0722858168	the re
0.0722853946	to summarize
0.0722767322	an unlabeled
0.0722659115	the overall
0.0722606115	the sample complexity of
0.0722571737	accurate but
0.0722545668	the book
0.0722530668	the decay
0.0722475850	15 different
0.0722450440	then generalize
0.0722416638	two perspectives
0.0722253112	derived for
0.0722219014	to sort
0.0722111156	under weak
0.0722002610	a novel framework
0.0721900698	the category
0.0721859659	the inner product
0.0721853043	approach to bayesian
0.0721799935	room for
0.0721760728	in over parameterized
0.0721665687	framework consists of
0.0721645479	become widely
0.0721642602	a dimension
0.0721622458	paper provides
0.0721565395	a beneficial
0.0721531418	functioning of
0.0721510557	performance than state of
0.0721499467	performed through
0.0721495720	experiments on image
0.0721491396	the theory of
0.0721350683	the workflow
0.0721253832	and iteratively
0.0721208346	the finite sample
0.0721196810	the sphere
0.0721160136	with highest
0.0721098094	the discretized
0.0721096824	problem of sequential
0.0721077114	important issue in
0.0721055266	the diagonal
0.0720997540	vulnerability to
0.0720929382	the observed
0.0720887695	significant improvement of
0.0720845792	other problems
0.0720831682	comparison with other
0.0720829697	a quantum
0.0720798569	kernel methods for
0.0720742036	likelihood of
0.0720685637	a new classification
0.0720657735	the fidelity
0.0720514982	many advanced
0.0720462415	input data into
0.0720431915	different kernels
0.0720386159	the model order
0.0720340667	different degrees
0.0720326252	derivative of
0.0720266148	a coordinate
0.0720219552	an increased
0.0720206969	cost of inference
0.0720160686	without adding
0.0720098695	regularized version of
0.0720089575	obstacle to
0.0720081351	many modern
0.0720062071	this criterion
0.0720024557	not present
0.0719897271	the meta learning
0.0719882919	the function
0.0719813330	deviations of
0.0719692560	this discovery
0.0719577629	marginal distribution of
0.0719572873	to utilize
0.0719569194	effective training of
0.0719552169	to gain
0.0719543998	a class
0.0719540301	methods fail to
0.0719488627	the main goal
0.0719484423	work shows
0.0719452162	training of machine
0.0719444205	this family
0.0719420138	up to 2
0.0719365766	text to
0.0719338478	abundance of
0.0719306861	the presence of missing data
0.0719284016	the amp
0.0719238254	the whole dataset
0.0719133875	over existing methods
0.0719125286	to release
0.0719098094	the missingness
0.0719048944	belonging to different
0.0718971451	empirical study on
0.0718959319	the same label
0.0718868488	significant challenge to
0.0718849746	convergence behavior of
0.0718837655	the average
0.0718813754	each possible
0.0718788447	by several orders of magnitude
0.0718768908	possible solution
0.0718766873	becomes very
0.0718766437	a gaussian mixture
0.0718716277	hybridization of
0.0718697133	speedup in
0.0718685260	a graph laplacian
0.0718561032	classified using
0.0718549298	this metric
0.0718521884	adapt to different
0.0718507506	by encouraging
0.0718432979	this paper makes
0.0718380311	a rank 1
0.0718370666	behavior across
0.0718328549	unfairness in
0.0718324796	by separating
0.0718302412	categories of
0.0718263998	bias in machine
0.0718141804	the critic
0.0718020320	a promising
0.0718017185	the relationship between
0.0718014170	the number of sources
0.0717959210	the zeroth order
0.0717873502	best result
0.0717855901	a manifold
0.0717829870	framework for large
0.0717758896	ignored in
0.0717740455	accessibility of
0.0717732658	graphs via
0.0717721496	the forward model
0.0717708914	very long
0.0717698572	the number of communities
0.0717600683	the factored
0.0717536768	via alternating
0.0717517565	investigation on
0.0717435091	a predicted
0.0717434021	challenges in machine
0.0717411333	a crucial problem
0.0717282778	machine learning methods in
0.0717130302	the refined
0.0717111727	able to exploit
0.0717108382	the target set
0.0717072627	both fixed
0.0717071463	problem of multi
0.0717059786	an unbounded
0.0716969465	sufficient condition on
0.0716872508	step size for
0.0716838033	function of interest
0.0716797594	provides superior
0.0716697116	two methods for
0.0716693666	augmented by
0.0716680051	advances in deep
0.0716675904	different data sources
0.0716631764	measures based on
0.0716593519	few labeled
0.0716565754	answer to
0.0716553095	degradation of
0.0716493469	the realization
0.0716443069	the sample
0.0716438520	the identification
0.0716436804	the cache
0.0716412565	the proposed hybrid
0.0716337655	the assumption
0.0716331801	the presence of noise
0.0716327670	informativeness of
0.0716283194	the variation
0.0716281021	already existing
0.0716258372	two basic
0.0716258011	two goals
0.0716221805	an ml model
0.0716189234	a tree
0.0716188187	a smooth
0.0716185680	$ \ mathbb r ^ m
0.0716159292	$ n p
0.0716099875	compounds with
0.0716072632	to replicate
0.0715938372	mean reward
0.0715914814	a denoising autoencoder
0.0715872937	principal components of
0.0715864374	lower bound to
0.0715803460	a color
0.0715798844	the original objective
0.0715751028	the sample covariance
0.0715731801	the linear case
0.0715723782	the underlying mechanism
0.0715715489	to save
0.0715696012	more scalable
0.0715690689	in terms of classification accuracy
0.0715688939	further investigate
0.0715603703	to achieve comparable
0.0715582617	problem in deep
0.0715573702	and surprisingly
0.0715534472	the decoder
0.0715472926	q =
0.0715472501	on five real world
0.0715316246	the beta process
0.0715288331	challenges for
0.0715244613	the sample space
0.0715170395	amount of data available
0.0715075566	defined in
0.0715037882	art baselines on
0.0714991384	typically only
0.0714967828	the healthcare
0.0714886227	work addresses
0.0714793815	the multi
0.0714728388	the computational overhead
0.0714673988	the unnecessary
0.0714614732	the wasserstein barycenter
0.0714610795	the connected components
0.0714588193	new technology
0.0714574270	the art robust
0.0714566157	used to classify
0.0714561989	the invariance
0.0714529678	the art deep learning models
0.0714522755	$ k \ times
0.0714518636	a smaller
0.0714517550	a regularizer
0.0714488216	a shared
0.0714478255	set of independent
0.0714474864	in conjunction
0.0714409976	the monotone
0.0714406177	the empirical loss
0.0714390019	the energy consumption
0.0714373302	the python
0.0714364884	$ \ mathcal n
0.0714339575	deficiencies of
0.0714313975	able to train
0.0714166475	obtained in
0.0714163281	an algorithm called
0.0714113556	important role of
0.0714089109	an interface
0.0713993949	improve performance on
0.0713949184	a simplified
0.0713939219	a gamma
0.0713936363	a construction
0.0713913412	the potential
0.0713888990	a recent technique
0.0713865433	the number of groups
0.0713824930	for automatic sleep
0.0713816978	a method
0.0713814241	degrees of freedom in
0.0713767654	on top
0.0713750655	or impossible
0.0713693567	the acquired
0.0713670310	the median
0.0713571977	favourably to
0.0713520371	joint representation of
0.0713417951	on synthetic and real world
0.0713302871	and thus
0.0713279964	constructions for
0.0713276901	the interface
0.0713264152	proxy for
0.0713263047	a wide range of domains
0.0713200683	the bilinear
0.0713086828	some machine learning
0.0713073366	burden of
0.0713052850	the connectivity
0.0713005499	communicating with
0.0712994611	many situations
0.0712984636	regards to
0.0712961112	the transform
0.0712839896	to know
0.0712830295	more generic
0.0712812889	flaws in
0.0712708276	the face of
0.0712686847	both labeled and unlabeled
0.0712640660	an increasing
0.0712631853	strongly convex and non
0.0712587315	also learn
0.0712567389	change of
0.0712476973	mini batch of
0.0712466571	by keeping
0.0712464253	the art neural
0.0712442457	$ metric
0.0712406691	this case
0.0712355185	the activation function
0.0712354192	the emergent
0.0712312520	several examples
0.0712269106	the sublinear
0.0712251568	other related
0.0712077795	the scheduling
0.0712064091	with momentum
0.0712061991	investigated in
0.0712004075	powerful tool in
0.0711997136	reward based on
0.0711988185	learns new
0.0711927815	tuned by
0.0711900698	the quantile
0.0711894385	or not to
0.0711864518	biased by
0.0711846450	some light on
0.0711820133	bounds for linear
0.0711762498	to support
0.0711729445	problem of generating
0.0711655140	the hidden units
0.0711559456	each such
0.0711551236	the intuitive
0.0711544241	the number of trainable
0.0711522462	in such cases
0.0711459403	best knowledge
0.0711450921	waste of
0.0711399431	first discuss
0.0711395404	a regular
0.0711393870	competitive performance in
0.0711329778	more sensitive
0.0711266171	a review of
0.0711228655	the latency
0.0711210432	or vice
0.0711207671	programming by
0.0711171359	instead propose
0.0711143321	limits of
0.0711063850	experimental study on
0.0711053563	the most
0.0710907639	$ regime
0.0710784352	the rationale
0.0710703199	a regression model
0.0710639732	t \
0.0710639176	with gradient penalty
0.0710635055	the step sizes
0.0710594638	$ w \
0.0710559683	the number of workers
0.0710541779	some degree
0.0710509926	error rate of
0.0710493191	also include
0.0710487923	sampled time series
0.0710476452	to mislead
0.0710472891	$ 1 p
0.0710465925	a large number of features
0.0710455859	equivalence of
0.0710367742	and completely
0.0710365941	paper gives
0.0710164085	while improving
0.0710160042	the gap between
0.0710091847	a high fidelity
0.0710071052	$ divergences
0.0710068692	research topic in
0.0710000780	a neuron
0.0709957238	certain types of
0.0709930677	the optimal choice
0.0709927663	a toolbox
0.0709926527	a naive
0.0709877420	only handle
0.0709859275	a cross entropy
0.0709852910	the sampler
0.0709819444	in order to handle
0.0709803226	the key factors
0.0709782469	number of free
0.0709771002	these choices
0.0709755238	begins to
0.0709728737	a shallow
0.0709681605	structure from
0.0709676302	then utilized
0.0709668683	the side
0.0709621913	the bidirectional
0.0709551190	this work introduces
0.0709546632	a polynomial time
0.0709504692	an explicitly
0.0709483464	then examine
0.0709457321	learning with deep
0.0709412611	by numerical simulations
0.0709362757	the learnt
0.0709332753	the inner
0.0709332105	new lower bounds
0.0709329923	the optimization
0.0709293017	these works
0.0709197182	clicks on
0.0709150157	for machine learning tasks
0.0709111414	the art online
0.0708998484	such structures
0.0708982561	a max
0.0708934477	eigenvector of
0.0708855120	all components
0.0708826417	matrix into
0.0708824727	a zero mean
0.0708733243	develop two new
0.0708718590	class of networks
0.0708702892	method on three
0.0708701383	framework for graph
0.0708698944	the replay
0.0708550636	the optimality
0.0708532011	each region
0.0708530201	the top
0.0708463442	to model
0.0708445137	up to constant
0.0708358783	a tree structured
0.0708348018	image like
0.0708327584	techniques allow
0.0708327045	increasingly more
0.0708302412	operation of
0.0708252017	the co
0.0708141181	a metric space
0.0708133388	new method
0.0708119733	\ 0
0.0708086667	requirements for
0.0708078223	found by
0.0708069620	variational autoencoders for
0.0708062056	and accordingly
0.0707921020	able to adapt
0.0707908628	to perform inference
0.0707905756	significant interest in
0.0707739856	more desirable
0.0707708899	the noise variance
0.0707696765	such as classification
0.0707625901	the art methods for
0.0707590255	the query
0.0707590255	the edge
0.0707498145	produces more
0.0707435091	the deeper
0.0707427973	given samples
0.0707399658	to design efficient
0.0707392446	best known results
0.0707386485	interest in understanding
0.0707374664	generated during
0.0707349481	the quantity
0.0707313746	critical component of
0.0707305497	variation in
0.0707168300	the inductive
0.0707099069	a principled framework
0.0707060321	assumptions than
0.0707027397	two levels
0.0707021907	an arbitrarily
0.0707009689	the optimization landscape
0.0706931165	evaluated with
0.0706845267	the intrinsic dimensionality
0.0706802466	as yet
0.0706725271	this condition
0.0706710355	the art convolutional neural
0.0706677459	a correlation
0.0706631395	the best known convergence
0.0706614612	empirical experiments on
0.0706581056	on three benchmark datasets
0.0706579985	by designing
0.0706553095	array of
0.0706526228	0 \
0.0706413901	the early stages
0.0706380466	another important
0.0706306080	or less
0.0706264776	achieves good
0.0706200521	the ideal
0.0706195251	respectively on
0.0706188706	these defenses
0.0706182331	do not offer
0.0706161698	either as
0.0706161276	no regularization
0.0706120753	the total cost
0.0706115239	the problem of selecting
0.0706105322	the mnist and fashion mnist
0.0706099448	various settings
0.0706083774	ignored by
0.0706058518	the lottery
0.0706045834	amount of unlabeled data
0.0706030201	to allow
0.0705989688	so doing
0.0705958233	also illustrate
0.0705918937	the threat
0.0705915776	by quantifying
0.0705830346	the city
0.0705812114	a uniform
0.0705736978	converges much
0.0705704329	communities in
0.0705692871	obtained under
0.0705690125	a biological
0.0705648263	set of functions
0.0705609246	consider only
0.0705528319	to jointly train
0.0705526527	a core
0.0705503137	approach consists of
0.0705498449	a semidefinite programming
0.0705328284	the interpretation
0.0705301043	a top 1
0.0705294228	local minima of
0.0705190528	theoretical computer
0.0705188061	many important
0.0705176907	relatively small number of
0.0705161771	to accelerate training
0.0705122052	dynamical systems from
0.0705115390	a bounded
0.0705019708	during test time
0.0704949423	the multidimensional
0.0704949385	problem of efficient
0.0704925122	less time
0.0704921613	the unknown function
0.0704917189	the few shot
0.0704862429	a nonlinear
0.0704862429	a structured
0.0704808186	quite different
0.0704777781	for image synthesis
0.0704699431	any specific
0.0704659409	the input output
0.0704640681	non linear transformation of
0.0704612321	the model's predictions
0.0704571463	learning with gaussian
0.0704506167	one dimension
0.0704497842	one single
0.0704481935	machine learning tasks in
0.0704454665	challenging problems in
0.0704382005	enough information
0.0704379241	evaluated in
0.0704369898	relative to other
0.0704368395	the full precision
0.0704353694	the underlying data
0.0704222926	certain tasks
0.0704218118	metric for
0.0704209067	a central role in
0.0704200981	a variety of tasks
0.0704192647	class of convex
0.0704171149	for quantizing
0.0704139715	identify several
0.0704078858	$ sampling
0.0704052850	the variability
0.0703991396	the framework of
0.0703965965	this bias
0.0703949184	to devise
0.0703868248	not imply
0.0703849560	the proposed loss
0.0703811267	the load
0.0703774327	used as inputs
0.0703717519	rules based on
0.0703678399	suitability for
0.0703660691	yet accurate
0.0703658620	these cases
0.0703627657	the modification
0.0703619375	a multiple kernel learning
0.0703617350	the representational
0.0703616640	a fully connected neural
0.0703441071	a rule
0.0703424347	points within
0.0703421452	results with respect
0.0703394755	against state of
0.0703371262	by implementing
0.0703254085	exponential convergence of
0.0703249543	d \ rightarrow
0.0703230508	many state of
0.0703216195	a longitudinal
0.0703216195	a collective
0.0703207365	no need
0.0703180228	a novel online
0.0703160838	the main contributions of
0.0703152887	learning for autonomous
0.0703137056	then solved
0.0703133909	the 0 1
0.0703132298	also achieves
0.0703130304	a natural way
0.0703101869	especially for
0.0703051481	a one hidden layer
0.0703034016	the medium
0.0702986025	both theoretical and empirical
0.0702941384	than previous results
0.0702920149	a bandit
0.0702850883	for constructing
0.0702779096	the minimax
0.0702778569	quadratically in
0.0702745918	quantities of
0.0702744404	not entirely
0.0702736042	some success
0.0702725391	most beneficial
0.0702680290	highly competitive with
0.0702664851	lack of training
0.0702649178	of sight
0.0702610234	a guaranteed
0.0702556096	each case
0.0702489869	high dimensionality of
0.0702481735	network structure with
0.0702448394	$ sample
0.0702386772	a convex combination
0.0702370973	to generalize
0.0702339930	the arithmetic
0.0702210836	the network architecture
0.0702160791	approaches fail to
0.0702036721	the effort
0.0702031033	the word level
0.0702025026	the true parameters
0.0702019265	a novelty
0.0702005152	cost of training
0.0701952125	often done
0.0701895696	computed in
0.0701870627	some scenarios
0.0701826563	to improve generalization
0.0701820538	an orthogonal
0.0701776195	the dp
0.0701755555	between layers
0.0701748697	network based approach to
0.0701694286	$ support
0.0701679882	selected via
0.0701538671	the environmental
0.0701514886	d \ sqrt
0.0701492138	this work develops
0.0701484646	done via
0.0701452287	number of applications
0.0701377110	a way to
0.0701350525	a decision
0.0701255196	$ matrix
0.0701228655	the execution
0.0701221391	also explore
0.0701159922	many popular
0.0701156659	wealth of
0.0701130983	the above issues
0.0701085320	estimation in
0.0701068480	nodes into
0.0701026641	a representative
0.0700999696	does not apply
0.0700941467	collected in
0.0700932489	the sensory
0.0700910255	the vast
0.0700892267	of using machine learning
0.0700878731	the underlying structure
0.0700876495	example generation
0.0700857390	networks for multi
0.0700833254	with desired properties
0.0700818010	regret against
0.0700792700	the computational burden
0.0700762466	$ 1 +
0.0700756518	the ordered
0.0700730867	do not consider
0.0700633223	the treated
0.0700620165	loss functions for
0.0700615802	number of component
0.0700609736	the loss
0.0700583982	statistics based on
0.0700533828	a theoretical explanation
0.0700506001	the problem of detecting
0.0700504444	or only
0.0700472164	in particle physics
0.0700448575	approximate solution to
0.0700299920	different situations
0.0700287009	a node
0.0700276648	an observed
0.0700181622	the inverse ising
0.0700163986	the plant
0.0700149017	objects from
0.0700102668	neural networks against
0.0700089930	development of new
0.0700065117	the logistic loss
0.0700045551	of two gaussians
0.0700031773	results on standard
0.0699992956	$ regularized
0.0699909053	observed through
0.0699882919	the distribution
0.0699795271	by sharing
0.0699767408	for storing
0.0699694439	sample efficiency of
0.0699644645	homogeneity of
0.0699545094	mainly due to
0.0699544676	the first result
0.0699509153	for designing
0.0699463642	prior works on
0.0699457321	behavior of deep
0.0699439045	the established
0.0699355355	some simple
0.0699334724	as features for
0.0699322262	user to specify
0.0699290633	two probability distributions
0.0699208656	separate models
0.0699196079	a simple and general
0.0699188474	among agents
0.0699120592	method for convex
0.0699111451	the system
0.0699072109	large corpus of
0.0698979810	an optimization
0.0698974673	criteria such as
0.0698960975	the problem structure
0.0698949729	works well on
0.0698939537	the number of linear regions
0.0698859860	a canonical
0.0698798379	task based on
0.0698791389	even in cases
0.0698744851	to bias
0.0698711335	the tangent
0.0698637106	concentrated in
0.0698555427	the non stationary
0.0698515655	the most fundamental
0.0698497955	a greater
0.0698479672	armed bandits with
0.0698478969	learning curves for
0.0698472486	often only
0.0698342233	the non linear
0.0698306733	the experience
0.0698278216	a quantity
0.0698263895	the micro
0.0698253902	and ablation studies
0.0698222613	time varying network
0.0698210567	data arising from
0.0698194338	the posterior density
0.0698158650	provided with
0.0698118397	over existing approaches
0.0697971769	any supervision
0.0697955863	further improve performance
0.0697948299	a sequence
0.0697891755	well known datasets
0.0697862290	a classification problem
0.0697851416	better estimate
0.0697799809	for acquiring
0.0697783036	these learned
0.0697733586	systems based on
0.0697711743	do not match
0.0697701520	the top layer
0.0697685191	variational models
0.0697680872	between individuals
0.0697570949	made possible
0.0697531688	the mnist handwritten
0.0697494785	numerical methods for
0.0697469276	indicated by
0.0697418760	comparison to existing
0.0697412471	the posterior probabilities
0.0697367205	application of deep learning to
0.0697307823	convergence theory for
0.0697240842	the program
0.0697168450	dynamical systems with
0.0697128716	first construct
0.0697084511	the enhanced
0.0697065306	task of interest
0.0697051319	these settings
0.0697032195	perform as well as
0.0696936314	reason for
0.0696795652	different time series
0.0696778252	these tasks
0.0696771469	the art gan
0.0696763038	the graph based
0.0696740267	both qualitative and quantitative
0.0696734147	$ | \ mathcal
0.0696646764	permutations of
0.0696645517	bounds for sparse
0.0696572731	these inequalities
0.0696551236	the corrupted
0.0696508513	a derivative
0.0696399490	appear to
0.0696386184	the drug
0.0696341055	explore two
0.0696333122	all such
0.0696307774	the protocol
0.0696219964	these games
0.0696217317	the tuning parameter
0.0696183950	a dynamic programming
0.0696178625	even very
0.0696158266	than conventional
0.0696115425	a challenging
0.0696074405	sequence to
0.0696036721	the quantitative
0.0696015042	both artificial and real
0.0695989713	a selected
0.0695899009	the attractive
0.0695898512	ridge regression with
0.0695864718	$ d ^
0.0695794969	a combinatorial
0.0695779214	a gap
0.0695733024	a concentration
0.0695711403	for speech enhancement
0.0695634206	to connect
0.0695616788	from scratch with
0.0695544272	\ | \
0.0695514333	automated way
0.0695513111	algorithms rely on
0.0695417844	the digital
0.0695391966	by capturing
0.0695351425	the manifold
0.0695304598	used throughout
0.0695297720	optimal value
0.0695276357	the target label
0.0695229656	with decreasing
0.0695208279	the maximum entropy
0.0695188902	possible to
0.0694978181	to move
0.0694903739	used for training
0.0694883343	the tracking
0.0694849417	the input features
0.0694837199	the supremum
0.0694790981	these improvements
0.0694782010	but even
0.0694719874	a missing
0.0694665078	a causal graph
0.0694644323	but still
0.0694550908	prominence in
0.0694546275	the number of queries
0.0694538687	a divide and conquer
0.0694538607	the reconstruction error
0.0694497758	the continual
0.0694457458	the prevalent
0.0694346413	the baseline model
0.0694346023	a few examples
0.0694310533	$ s ^
0.0694283651	a kind
0.0694265794	temporal dependencies in
0.0694186960	operations such as
0.0694165253	the previous state
0.0694085552	the primal
0.0693950523	the label space
0.0693943069	the solution
0.0693941436	with eight
0.0693830448	to transform
0.0693757948	tests for
0.0693719022	$ distance
0.0693676364	the brain
0.0693656156	the inherent
0.0693655059	context of multi
0.0693648869	in order to understand
0.0693633892	or better
0.0693611013	these papers
0.0693599862	inference methods for
0.0693593090	the promise of
0.0693519837	a polynomial
0.0693499444	highly effective in
0.0693475228	an advantage
0.0693386419	a correlated
0.0693366097	further apply
0.0693366097	then compare
0.0693288331	demonstrated in
0.0693208237	utilized by
0.0693177898	a simple iterative
0.0693171906	to quantize
0.0693113988	for estimating
0.0693087919	the number of predictors
0.0693081230	method performs better than
0.0693060049	the optimal number of clusters
0.0693004946	example from
0.0692929721	techniques in terms
0.0692862786	inversion of
0.0692800987	to reflect
0.0692784722	a multi step
0.0692745247	method requires only
0.0692730452	become computationally
0.0692707560	a linear subspace
0.0692694112	supervised models
0.0692650843	number of classifiers
0.0692642666	almost as
0.0692591706	also examine
0.0692582373	also included
0.0692574520	the phenotype
0.0692525832	a large collection
0.0692521955	the trivial
0.0692493744	the latent function
0.0692367350	the backdoor
0.0692345743	ensembles of neural
0.0692324870	a drastic
0.0692318845	an indian
0.0692309842	the art cnn
0.0692285888	this paper builds
0.0692278260	an electronic
0.0692260510	through experiments
0.0692229656	the analogy
0.0692205244	the week
0.0692160818	a shallow network
0.0692152348	the quest
0.0692114966	a metric
0.0692022795	the art clustering
0.0691962430	shows better
0.0691945462	the minority
0.0691886597	to automatically determine
0.0691855722	more costly
0.0691826362	regard to
0.0691786999	the default
0.0691730295	any parametric
0.0691685372	a deep cnn
0.0691659004	generic framework for
0.0691634977	necessary and
0.0691618870	the underlying matrix
0.0691596088	further use
0.0691594218	issue of
0.0691454128	some common
0.0691444870	quantity of
0.0691443324	use deep learning to
0.0691417420	different hyperparameters
0.0691411861	the information leakage
0.0691407092	the association
0.0691370761	the travel
0.0691310990	uses only
0.0691302348	to diverge
0.0691229130	efficient implementation of
0.0691187392	ground truth for
0.0691168774	a single source
0.0691072523	the target policy
0.0691046294	an unseen
0.0691035354	such as predicting
0.0691028127	dense models
0.0691007096	especially useful
0.0690944408	taken over
0.0690944209	particular cases
0.0690890364	a two layer
0.0690886953	some information
0.0690823536	such as medical diagnosis
0.0690806733	the gain
0.0690645811	existing methods do
0.0690614190	a high degree of
0.0690600690	performing inference in
0.0690504669	required to make
0.0690498863	a factor
0.0690493270	under various
0.0690395322	the weighting
0.0690304779	trained without
0.0690302413	only one
0.0690294086	in high dimensional linear
0.0690266364	explore different
0.0690207205	a valid
0.0690175788	the accuracy
0.0690136663	two challenges
0.0690115129	problem based on
0.0690088642	the next
0.0690012847	this apparent
0.0689988105	a convex optimization
0.0689943933	to automatically learn
0.0689906241	set of classifiers
0.0689840420	in terms of sample efficiency
0.0689832943	thus provide
0.0689753870	also enjoys
0.0689708619	a hyperbolic
0.0689706059	the corrected
0.0689660137	all others
0.0689566306	assumption of
0.0689563470	several recent
0.0689534242	interface for
0.0689469625	network to model
0.0689378965	strong convexity of
0.0689326619	the sliced wasserstein
0.0689232115	method for deep
0.0689220773	the number of nonzero
0.0689206287	by construction
0.0689199431	further analyze
0.0689172519	explicitly consider
0.0689148792	the off policy
0.0689127964	performance bounds for
0.0689120684	the linear model
0.0689120592	number of target
0.0689120342	a tensor
0.0689077210	development of novel
0.0689054857	incorporate new
0.0688947118	schemes based on
0.0688930411	at run time
0.0688865033	the mixing matrix
0.0688860892	a new online
0.0688860234	the summary
0.0688855706	and later
0.0688846031	the damage
0.0688837655	the minimum
0.0688824516	a meta
0.0688814251	other common
0.0688814251	further establish
0.0688744851	to require
0.0688724147	to memorize
0.0688723036	to fully utilize
0.0688714883	class of machine
0.0688704362	an invariant
0.0688701846	principled approach to
0.0688675568	made possible by
0.0688661078	result of
0.0688628784	fill in
0.0688610833	statistical mechanics of
0.0688596642	a path
0.0688585518	system achieves
0.0688514671	the national
0.0688425445	a decade
0.0688424272	the end user
0.0688404031	the k nn
0.0688236083	the associated
0.0688216192	possible from
0.0688214141	the explanation
0.0688212661	non gaussian data
0.0688188304	the past
0.0688145811	the memory
0.0688087755	this difficulty
0.0688055078	a distance metric
0.0687989849	each cell
0.0687941753	the alternating
0.0687902364	an effective way
0.0687892624	by linking
0.0687888076	two real world data
0.0687864962	the vanilla
0.0687861796	a long term
0.0687693743	many challenges
0.0687661895	full knowledge of
0.0687631857	model performs better
0.0687625605	with attention mechanism
0.0687603327	results in image
0.0687573212	made using
0.0687533153	a substitute
0.0687407576	architecture for
0.0687376860	between inputs
0.0687370572	these loss functions
0.0687369019	only grows
0.0687346746	to discuss
0.0687324526	simulations based on
0.0687280080	all features
0.0687199696	the production
0.0687190445	many machine learning
0.0687184070	given dataset
0.0687107815	the conjugate
0.0687086974	multiplicity of
0.0687013584	the same asymptotic
0.0687007157	the generative adversarial network
0.0686963275	the example
0.0686934573	a variety of domains
0.0686906509	through simulation
0.0686892228	effective for
0.0686823190	tested in
0.0686704060	a threshold
0.0686658005	3 \
0.0686628229	by estimating
0.0686527465	center of
0.0686516396	this connection
0.0686484424	the non gaussian
0.0686462468	performance improvements on
0.0686414256	these approximations
0.0686396801	further conduct
0.0686330106	the study of
0.0686304287	error across
0.0686288621	received much attention in
0.0686288579	the certified
0.0686285795	tried to
0.0686276980	both gaussian
0.0686261558	theoretical justification of
0.0686154883	a larger
0.0686070665	despite recent
0.0686061371	the model class
0.0685990642	a trainable
0.0685975950	inductive bias for
0.0685863202	favorably to other
0.0685811829	the true objective
0.0685799686	predictive power of
0.0685785987	these clusters
0.0685755136	data to create
0.0685751204	commonly used for
0.0685746484	the spread
0.0685734969	an element
0.0685702029	modeled with
0.0685656471	a subclass
0.0685634206	a dedicated
0.0685587034	the spectral norm
0.0685584842	the raw
0.0685535592	the class imbalance
0.0685489943	the model architecture
0.0685467859	manipulation of
0.0685449791	system parameters
0.0685428842	the great success of
0.0685414684	each dimension
0.0685377587	to supplement
0.0685377332	the augmented
0.0685327285	several approaches
0.0685289984	the unadjusted
0.0685282988	need to compute
0.0685278966	large collection of
0.0685265633	notes on
0.0685203946	to converge
0.0685160614	weighted by
0.0685026549	new measures
0.0684983982	suitable for learning
0.0684962653	the bayesian paradigm
0.0684941180	approach consists in
0.0684940081	novel policy
0.0684897897	explored by
0.0684887924	adjusting for
0.0684867350	the pitch
0.0684867350	the appearance
0.0684867350	the transaction
0.0684843829	this paper focuses
0.0684839262	a novel deep learning framework
0.0684775544	terms of convergence
0.0684775544	problem of testing
0.0684773544	further prove
0.0684744273	not required
0.0684704094	the viewpoint
0.0684684295	a restricted
0.0684610156	extracted using
0.0684610044	linear regression under
0.0684550455	probabilistic approach to
0.0684543344	the possibility of
0.0684537260	a prior
0.0684512499	a special type of
0.0684504148	other approaches
0.0684448064	the epistemic uncertainty
0.0684438696	features within
0.0684378549	a subset
0.0684351184	both human
0.0684292938	theory to show
0.0684231618	a given set of
0.0684218525	these probabilities
0.0684197372	fragility of
0.0684181164	a distribution
0.0684181164	a kernel
0.0684181164	the prediction
0.0684113598	directly via
0.0684109489	several benchmarks
0.0684085990	the question
0.0684043825	the l1
0.0683981583	the slow
0.0683926389	a good trade off
0.0683886555	to project
0.0683860288	all existing methods
0.0683834916	the well established
0.0683833140	running on
0.0683817339	signal of interest
0.0683800949	different parts of
0.0683781612	applications in data
0.0683698944	a cell
0.0683593886	$ upper bound
0.0683570818	robustness of machine
0.0683553007	performance with
0.0683551066	the mean shift
0.0683549109	these observations
0.0683542300	three criteria
0.0683464387	errors than
0.0683418012	and deeper
0.0683416787	an impressive
0.0683414684	not explicitly
0.0683399561	expansions of
0.0683262391	very efficiently
0.0683196089	able to perform
0.0683140019	the mobile devices
0.0683134436	even larger
0.0683060637	relaxations for
0.0683055931	asymptotics for
0.0683052814	this work considers
0.0682947536	for guiding
0.0682923731	achieved by using
0.0682853846	the self attention
0.0682750654	fashion without
0.0682737971	any dataset
0.0682729019	a pre processing
0.0682680842	the saturation
0.0682679450	and analytically
0.0682611252	the adjacent
0.0682576454	determined in
0.0682549804	system state
0.0682535459	given enough
0.0682523801	the emotion
0.0682494981	the day
0.0682473400	the contribution
0.0682466348	algorithm outperforms other
0.0682331063	$ y \ in
0.0682318002	novel neural network architecture
0.0682277939	the art gans
0.0682240842	the tested
0.0682229412	the number of distinct
0.0682205056	practical way
0.0682154323	the problem of determining
0.0682111552	an immediate
0.0682079719	research aims to
0.0682004148	than existing
0.0681887686	the rational
0.0681853959	the proposed metric
0.0681833972	score for
0.0681807691	not reflect
0.0681791009	previous models
0.0681745401	the door to
0.0681700674	the generated samples
0.0681590173	amount of data
0.0681561935	progression of
0.0681503243	stochastic block model with
0.0681499601	sensor data from
0.0681466367	the malware
0.0681424369	techniques developed in
0.0681410501	on several standard
0.0681409132	dimension of data
0.0681402354	an intrinsic
0.0681368967	on benchmark datasets demonstrate
0.0681367358	information from other
0.0681300987	a conjecture
0.0681295143	demands for
0.0681242771	n ^ o
0.0681182331	do not exhibit
0.0681157995	the pretrained
0.0681084879	the high
0.0681059729	typical example
0.0680942178	time series data using
0.0680923588	the domain
0.0680909462	set of synthetic
0.0680903861	important applications in
0.0680857153	a good policy
0.0680842577	the training samples
0.0680833460	recent success of
0.0680810341	for binary classification
0.0680805567	the page
0.0680805567	the macro
0.0680797365	learning performance in
0.0680792009	the sparse
0.0680744379	many successful
0.0680700683	the sigmoid
0.0680699384	inference based on
0.0680672739	a foundational
0.0680646893	first attempt
0.0680594491	discriminative power of
0.0680588276	a similarity matrix
0.0680583712	to denoise
0.0680575659	the art distributed
0.0680567348	parameter estimation in
0.0680504270	values at
0.0680454715	three cases
0.0680417844	the project
0.0680342683	a novel linear
0.0680332866	the average reward
0.0680325834	a supervised learning
0.0680294004	the number of covariates
0.0680223431	the insurance
0.0680204078	also shed
0.0680195533	this work aims
0.0680178692	from observational
0.0680130496	the number of neurons
0.0680094656	a two stream
0.0680091233	a specific form
0.0680040381	method works by
0.0680014251	first identify
0.0679939195	a singular
0.0679806956	the expected loss
0.0679794205	comprising of
0.0679767271	the claim
0.0679708619	a camera
0.0679687809	a two step procedure
0.0679563330	certain threshold
0.0679552537	introduced for
0.0679493871	an intuition
0.0679484772	the expected regret
0.0679463023	for illustration
0.0679460571	heavily on
0.0679411818	power of two
0.0679376860	given sample
0.0679374087	contrast to previous work
0.0679314036	done without
0.0679218248	the distinct
0.0679210876	the framework
0.0679210560	conducted on several
0.0679204060	the inferred
0.0679199444	three key
0.0679198556	data set for
0.0679129963	therefore not
0.0679084034	to directly optimize
0.0679033996	attention because
0.0679021257	any non
0.0679010768	a parametric
0.0678967043	side information about
0.0678943043	framework for efficient
0.0678927811	the paper demonstrates
0.0678925326	methods for community
0.0678908017	show here
0.0678839511	any fixed
0.0678837655	the relative
0.0678837655	the joint
0.0678827902	such systems
0.0678817724	often find
0.0678784352	the middle
0.0678749127	published by
0.0678703042	the door
0.0678679595	zero entries in
0.0678672936	inference via
0.0678622497	a summary of
0.0678520962	the use
0.0678514671	the automation
0.0678455212	a meaningful
0.0678238574	able to classify
0.0678166110	observations into
0.0678140788	to tell
0.0678140723	$ i =
0.0678116443	a linear rate of convergence
0.0678114323	explained as
0.0678113393	a large network
0.0678043235	solutions based on
0.0678016500	such perturbations
0.0677969850	the image domain
0.0677961906	this respect
0.0677948299	the base
0.0677922897	on various benchmark
0.0677886121	labels given
0.0677882421	a sufficiently large
0.0677869465	promise in
0.0677823170	the most appropriate
0.0677728831	best model
0.0677709440	the twin
0.0677684276	approximate inference in
0.0677676716	a clinical setting
0.0677591246	impractical for
0.0677582175	learning methods for
0.0677480040	to respond
0.0677461615	several alternatives
0.0677447907	also showed
0.0677406790	an inner product
0.0677365614	within clusters
0.0677305185	the art image
0.0677265479	an effective method
0.0677242252	any algorithm
0.0677233996	number of standard
0.0677216039	effective approach to
0.0677165706	under heavy
0.0677078468	various types
0.0677071463	learning with label
0.0677051413	the statistical complexity
0.0677032408	a pressing
0.0677032035	tradeoff between accuracy and
0.0676950957	the sequence generated
0.0676821704	a diagnosis
0.0676786347	a variety of applications
0.0676778750	key feature of
0.0676751290	this generic
0.0676729155	demonstrated to
0.0676719549	order to evaluate
0.0676670537	many downstream
0.0676658116	predictions at
0.0676641657	to retrain
0.0676614065	most responsible
0.0676612879	context of large
0.0676555706	and then
0.0676508201	several key
0.0676456450	becomes available
0.0676448134	the art defense
0.0676443069	the state
0.0676425788	a feature
0.0676394993	critical challenge in
0.0676357628	every possible
0.0676291885	a sampling based
0.0676249589	algorithms do not
0.0676167442	successfully applied to many
0.0676163697	stable than
0.0676132432	variety of approaches
0.0676074884	the reference
0.0675958214	this procedure
0.0675937472	challenge for
0.0675872302	a proxy
0.0675805601	good predictive
0.0675771520	a discrete
0.0675767350	the pointwise
0.0675700262	the mixture weights
0.0675694084	the barycenter
0.0675681660	occurred in
0.0675652865	inapplicable to
0.0675645443	the face
0.0675628193	previous works on
0.0675608878	learning from label
0.0675590001	support system
0.0675553968	also reveal
0.0675513827	and xlnet
0.0675487556	the strengths
0.0675476330	not amenable
0.0675457193	even higher
0.0675446610	this bound
0.0675438732	uncertainty in deep
0.0675437108	the idea
0.0675429194	product between
0.0675406623	performed with
0.0675395322	the concentration
0.0675336698	whole dataset
0.0675324073	the remarkable
0.0675275426	forecasting with
0.0675274295	other popular
0.0675261684	learning with linear
0.0675213628	optimization in machine
0.0675191246	overlap with
0.0675186957	the underlying distributions
0.0675175788	the dimension
0.0675165799	the number of hidden
0.0675100683	the equipment
0.0675010486	potentially more
0.0674992155	characteristics such as
0.0674985889	among features
0.0674936927	and partially observed
0.0674928351	problem of matrix
0.0674911869	rather than learning
0.0674910973	issue in
0.0674880576	held in
0.0674867350	the radar
0.0674852391	kernel k
0.0674810385	uncertainty estimates for
0.0674786569	a loan
0.0674782237	methods relying on
0.0674736406	to yield
0.0674724645	these small
0.0674712020	give theoretical
0.0674708765	also apply
0.0674708619	a micro
0.0674700526	manner without
0.0674689045	the designed
0.0674660310	and hence
0.0674591396	the core of
0.0674564524	the setup
0.0674543434	the propensity score
0.0674511216	classification accuracy on
0.0674465544	mostly focus
0.0674424073	best estimator
0.0674409147	the persistence
0.0674397022	the bandwidth
0.0674396611	improving over
0.0674318478	then analyze
0.0674271765	a situation
0.0674269360	the non differentiable
0.0674258762	combine two
0.0674242769	becomes even
0.0674241846	the memory footprint
0.0674235101	issues with
0.0674234233	the random forest
0.0674204646	random projections of
0.0674195626	provides good
0.0674126566	exploration by
0.0674051695	best models
0.0673979228	well as on real
0.0673943069	a task
0.0673931923	an in depth analysis of
0.0673911922	$ =
0.0673895404	a scene
0.0673796935	the existence of adversarial examples
0.0673737108	k \ sqrt
0.0673679527	the industry
0.0673650600	corrupted with
0.0673649149	in order
0.0673585335	given at
0.0673554203	new environments
0.0673449014	the structure
0.0673366269	process model for
0.0673366199	any input
0.0673340410	different approaches
0.0673285494	\ frac n ^
0.0673252165	increasing amount of
0.0673234193	to train machine learning
0.0673184378	sentences from
0.0673182472	in order to gain
0.0673171762	also suggests
0.0673158172	a wider
0.0673156031	popular method for
0.0673150776	this critical
0.0673135808	the segmented
0.0673102238	with state of
0.0673095067	the hypergraph
0.0673073648	to validate
0.0673032392	also introduce
0.0672990574	the agent to explore
0.0672981583	the theorem
0.0672975214	an ensemble method
0.0672947536	a medium
0.0672787009	a causal
0.0672768248	an indicator
0.0672685286	the correction
0.0672557055	view on
0.0672543910	via numerical experiments
0.0672535204	comes to
0.0672532095	an overall
0.0672516044	of machine learning tasks
0.0672431848	optimization problems with
0.0672428892	those trained
0.0672387932	particular attention
0.0672359662	several clusters
0.0672338052	the familiar
0.0672325820	a large batch
0.0672305736	slow due to
0.0672242563	current best
0.0672223776	to proceed
0.0672218826	in wireless networks
0.0672213907	convergence result for
0.0672190486	the second challenge
0.0672171958	classification based on
0.0672134525	transferability of
0.0672125286	for investigating
0.0672116286	across several
0.0672091265	a patient
0.0672081981	a certified
0.0672080713	also conducted
0.0671990403	in order to address
0.0671986930	the nested
0.0671868041	different measures
0.0671783431	a better trade off
0.0671695418	to efficiently optimize
0.0671590735	scalable approach for
0.0671522311	this example
0.0671514352	the first order
0.0671509550	from noisy
0.0671436503	the predicted
0.0671420158	the conformal
0.0671411518	to score
0.0671406509	not scalable
0.0671406149	original work
0.0671372842	good empirical
0.0671350525	a positive
0.0671346212	algorithm for unsupervised
0.0671309922	many studies
0.0671194028	derivations of
0.0671168728	set of problems
0.0671144757	latent representation of
0.0671131861	an issue
0.0671091483	density function of
0.0671084879	the uncertainty
0.0671069519	a speech
0.0671048563	a data driven way
0.0670989857	metrics for
0.0670940258	bayesian method for
0.0670917100	the output distribution
0.0670896695	the dual problem
0.0670849069	a comprehensive analysis
0.0670839642	\ geq \
0.0670801024	for detecting
0.0670711909	placed in
0.0670703584	by giving
0.0670682612	model with multiple
0.0670679387	concentrations of
0.0670673180	to generate images
0.0670655795	the above challenges
0.0670595206	found to
0.0670440703	quality of data
0.0670411047	developed here
0.0670371879	a reliable
0.0670371647	each type
0.0670365611	the deviation
0.0670359676	a joint representation
0.0670357258	to accurately estimate
0.0670347735	neural networks via
0.0670292073	the model predicts
0.0670263196	synthesis of
0.0670201926	three important
0.0670191562	module for
0.0670188950	ability than
0.0670182495	a simple approach
0.0670180594	the substantial
0.0670139630	the dynamics of
0.0670089107	x \ |
0.0670074441	the earlier
0.0670058102	a key task
0.0670052844	well studied problem
0.0670014498	the context
0.0669941159	variable selection with
0.0669899382	speedup on
0.0669893608	the distinctive
0.0669876236	a strict
0.0669872414	best fixed
0.0669730590	an exponentially
0.0669706059	the volatility
0.0669666908	most useful
0.0669614966	a multivariate
0.0669614966	a group
0.0669543998	the extended
0.0669470499	the predominant
0.0669457321	problems in deep
0.0669387803	$ d_ \
0.0669356251	moderate to
0.0669326105	in healthcare
0.0669309474	a time series
0.0669301419	also develop
0.0669297974	for recovering
0.0669294454	empirical performance on
0.0669251568	most studies
0.0669249678	for edge devices
0.0669232866	some recent
0.0669186935	the solution obtained
0.0669175077	made of
0.0669101572	the receiver
0.0669019403	the latent code
0.0669004925	outputs from
0.0668987561	scalable method for
0.0668981482	a new method
0.0668979742	a convenient
0.0668927086	trade off of
0.0668858457	increasingly used for
0.0668830106	the output of
0.0668716444	markov chain with
0.0668711573	to fully exploit
0.0668685844	step further
0.0668675509	an autoregressive model
0.0668658204	to associate
0.0668654295	the problem of approximating
0.0668596910	in order to identify
0.0668596642	a query
0.0668563834	limited due to
0.0668560745	thorough analysis
0.0668533500	easy way
0.0668499138	a low cost
0.0668483024	the crowdsourcing
0.0668472963	the order of
0.0668449576	signals with
0.0668444843	method for neural
0.0668442212	different acquisition
0.0668433989	one major
0.0668402660	the basic
0.0668395368	a noise
0.0668370029	the preferred
0.0668353896	k \
0.0668341629	the time required
0.0668321910	$ risk
0.0668255375	the resulted
0.0668228783	the signal
0.0668221940	survival analysis with
0.0668181437	\ sqrt 1
0.0668167955	scalable learning of
0.0668164315	transfer from
0.0668141066	the complicated
0.0668136463	features into
0.0668071501	terms of performance
0.0668054928	topic model for
0.0668050212	a point
0.0668041434	taken into
0.0668007060	a downstream
0.0668006922	the tree
0.0667915182	full data
0.0667888133	the fault
0.0667861946	the same subspace
0.0667834903	set of examples
0.0667758043	games with
0.0667711525	most recent
0.0667698279	networks for learning
0.0667685128	a great potential
0.0667579052	the data size
0.0667579017	and wikitext
0.0667525624	an architecture
0.0667514498	the noise
0.0667496675	the prostate
0.0667464389	performance on several
0.0667450662	the recovered
0.0667447907	under varying
0.0667393406	more important
0.0667342882	powerful approach to
0.0667338807	a goal conditioned
0.0667279165	database of
0.0667254643	single value
0.0667227779	different parameters
0.0667191348	a natural language
0.0667141706	estimation for
0.0667103754	policy evaluation with
0.0667096907	estimation of causal
0.0667066171	the superior performance of
0.0667044969	such as twitter
0.0667026641	a minimal
0.0667021756	also proved
0.0667002695	the echo
0.0666979267	also brings
0.0666919372	the knowledge
0.0666858850	work introduces
0.0666851529	with limited
0.0666845359	by focusing
0.0666826871	not require additional
0.0666794600	used without
0.0666787660	the kl divergence between
0.0666775044	the self attention mechanism
0.0666744104	$ order
0.0666714141	the penalized
0.0666703321	cause for
0.0666694691	a generator
0.0666688574	with negligible
0.0666686714	the modulation
0.0666668105	the multi class
0.0666610156	regressions with
0.0666494920	the cosine
0.0666468046	of modern deep learning
0.0666416367	a very simple
0.0666372302	a factorized
0.0666326252	neighborhoods of
0.0666278828	\ times 10
0.0666200521	the projected
0.0666200473	fail due to
0.0666174764	the hidden states
0.0666160340	scales well with
0.0666139518	performs as
0.0666116617	combined with other
0.0666068116	possible solutions
0.0666057573	stationarity of
0.0665996704	the hardness
0.0665986665	most effective
0.0665984968	the front
0.0665968855	both empirical
0.0665943009	context of machine
0.0665879279	the food
0.0665846789	1 nearest
0.0665817100	corresponding optimization problem
0.0665810312	tasks in machine
0.0665757361	a tail
0.0665715901	a principled bayesian
0.0665675972	for few shot classification
0.0665569392	the first end to end
0.0665567619	a century
0.0665525894	this initial
0.0665470715	the level of individual
0.0665417844	the manual
0.0665406206	this effect
0.0665400565	the penalty term
0.0665320010	the vocabulary
0.0665314097	such as bert
0.0665258142	the capsule
0.0665251018	to log factors
0.0665217366	the relation
0.0665208476	produced in
0.0665171098	measurement of
0.0665130496	the number of states
0.0665094026	the naive bayes
0.0664980193	$ neighborhood
0.0664978851	improvement in classification
0.0664976344	a data adaptive
0.0664973400	the public
0.0664918819	for classifying
0.0664870467	the year
0.0664854473	a given graph
0.0664854342	i \ in
0.0664852226	the multi scale
0.0664810840	this setup
0.0664808739	the proposed schemes
0.0664776887	the central
0.0664746514	^ 2 + \
0.0664740842	the mode
0.0664712990	advances in neural
0.0664696171	all users
0.0664684295	a surrogate
0.0664650364	the mean squared
0.0664589414	a given data set
0.0664583315	all relevant
0.0664458811	the field of machine
0.0664390564	protocol for
0.0664374847	containing over
0.0664371089	as well or better
0.0664363742	back into
0.0664293770	the most likely
0.0664281393	a curriculum
0.0664251017	the unnormalized
0.0664244334	a signature
0.0664212242	by calculating
0.0664198032	each boosting
0.0664182555	conducted by
0.0664111973	then give
0.0664103026	not actually
0.0664068587	thus achieving
0.0664041434	the most frequently
0.0664032862	a detector
0.0663989804	the dantzig
0.0663945511	behaviors from
0.0663943069	the policy
0.0663943069	the kernel
0.0663899565	better with
0.0663764791	the best of
0.0663753301	the application of
0.0663645667	a theoretical point of view
0.0663643803	novel contribution
0.0663616415	grows as
0.0663611028	redundancies in
0.0663595291	well known in
0.0663590296	rows and columns of
0.0663525110	the temperature
0.0663514991	covariance matrices of
0.0663489607	promising solution to
0.0663451087	further demonstrate
0.0663399561	possibilities of
0.0663395514	different devices
0.0663330327	rank approximations of
0.0663312965	some examples
0.0663282404	these results provide
0.0663274925	while outperforming
0.0663263895	the mesh
0.0663235638	analysis of random
0.0663209622	this functional
0.0663176871	a covariate
0.0663156721	a single gaussian
0.0663116585	both continuous and discrete
0.0663007520	approaches to
0.0662963490	to machine
0.0662950127	non independent
0.0662932145	same task
0.0662899491	method on real
0.0662883222	not necessary
0.0662881727	the sample complexity of learning
0.0662868171	a bit
0.0662837641	a recent surge of interest
0.0662804947	on four benchmark datasets
0.0662753229	no polynomial time
0.0662751545	the effect
0.0662736567	the separable
0.0662679736	for training machine learning
0.0662626941	the excessive
0.0662576464	proofs for
0.0662566998	curves for
0.0662527341	analysis based on
0.0662385919	capture more
0.0662383622	simple and general
0.0662370922	of multipliers
0.0662366967	category of
0.0662227888	shed new
0.0662197099	both settings
0.0662187171	a learning agent
0.0662174516	relationship between two
0.0662144600	the workhorse
0.0662070665	very specific
0.0662070302	the stimulus
0.0662039527	to review
0.0661980039	deep 3d
0.0661952628	the conventional
0.0661943670	\ lambda \
0.0661930273	an accuracy of
0.0661900698	the fuzzy
0.0661892215	a lossy
0.0661853233	detecting changes
0.0661804452	across different tasks
0.0661655300	the number of vertices
0.0661603506	a good initial
0.0661570412	obtained on
0.0661490802	results obtained by
0.0661395533	to prepare
0.0661384489	important tool in
0.0661346727	extrapolate to
0.0661339576	the sparse regime
0.0661292760	updates based on
0.0661255946	paper contributes to
0.0661188421	both white box and
0.0661156372	general notion of
0.0661113219	practical performance of
0.0660991195	deep learning model to
0.0660984526	number of important
0.0660982691	for decades
0.0660965318	reconstructed by
0.0660842511	the problem of optimizing
0.0660819839	generative models such as
0.0660810531	representations across
0.0660801301	also explored
0.0660773533	an adjacency
0.0660714486	$ h ^
0.0660707601	improvements in terms of
0.0660595206	to take
0.0660574876	the conventional approach
0.0660566998	assignment for
0.0660519652	way to incorporate
0.0660514593	optimization for deep
0.0660436627	the full sample
0.0660385168	the scene
0.0660358341	number of samples needed to
0.0660350696	histories of
0.0660332835	several classes
0.0660326684	also established
0.0660321733	to analyse
0.0660293274	$ invariant
0.0660248363	a similar result
0.0660245376	label only
0.0660195211	a student network
0.0660125471	samples according
0.0660122558	on low power
0.0660120191	this generalized
0.0660076417	information available
0.0660038677	with subgaussian
0.0660014498	the class
0.0660014498	the feature
0.0659993744	many learning problems
0.0659992923	policy using
0.0659965650	to weight
0.0659868623	further show
0.0659845180	a core problem
0.0659823467	convolutions with
0.0659785726	attack on
0.0659706059	the signed
0.0659680842	the collision
0.0659654406	non convex function
0.0659637674	the proposed attack
0.0659543998	the normal
0.0659387191	a multilingual
0.0659367836	the source and target
0.0659300871	sparse representation of
0.0659290094	these strategies
0.0659276901	the coarse
0.0659213346	more general framework
0.0659205472	l ^ 1
0.0659198304	the back propagation
0.0659183599	demonstrate improvements in
0.0659166787	by transferring
0.0659110739	best solution
0.0659083247	a high accuracy
0.0659048327	found for
0.0659041962	a simulated
0.0659014554	the number of rounds
0.0659009004	a transfer
0.0658942294	required number of
0.0658903745	guaranteed by
0.0658867167	both large
0.0658833323	the noise distribution
0.0658825153	succeeds in
0.0658820550	constructed to
0.0658817724	further consider
0.0658786457	used to produce
0.0658776946	further develop
0.0658720844	preserved in
0.0658563834	attention due to
0.0658550636	novel model based
0.0658514671	the neuronal
0.0658488755	and conquer approach
0.0658425645	a certificate
0.0658375277	the most accurate
0.0658289220	devices with
0.0658271547	well known algorithms
0.0658222052	the sentiment
0.0658131461	at odds
0.0658122273	end to end framework for
0.0658090001	generation system
0.0658051306	a closed
0.0658050212	a vector
0.0658039393	the inexact
0.0657948219	measured on
0.0657874143	also suggest
0.0657847675	such as video
0.0657756554	the splitting
0.0657749123	a unit
0.0657698289	any knowledge
0.0657698200	this causes
0.0657644459	a nonnegative
0.0657639489	these perturbations
0.0657603691	often assume
0.0657593296	promising technique for
0.0657565448	framework for classification
0.0657548600	usually applied
0.0657548600	especially challenging
0.0657538214	a sum of
0.0657522039	by visualizing
0.0657513882	procedures such as
0.0657482427	a preference
0.0657384651	a suboptimal
0.0657360528	useful knowledge
0.0657341099	the protected
0.0657340659	matching between
0.0657338052	the emission
0.0657331174	more successful
0.0657311689	widespread use of
0.0657302857	against noise
0.0657293525	to include
0.0657270329	proposed method compared to
0.0657266569	determined from
0.0657236701	utilized as
0.0657235048	optimization problems over
0.0657204399	signal into
0.0657140787	the tail
0.0657116286	among different
0.0657114883	the solution path
0.0657050281	goal of learning
0.0657011216	data sampled from
0.0656997997	and memory usage
0.0656992771	improves state of
0.0656969014	to teach
0.0656911975	the fine tuning
0.0656876912	the model predictions
0.0656848753	these empirical
0.0656825588	this variant
0.0656796810	the coreset
0.0656788648	policies based on
0.0656774990	machine learning models for
0.0656772253	to end
0.0656714141	the assumed
0.0656693040	models for
0.0656660994	enough time
0.0656643707	policy gradient with
0.0656622060	the multiclass
0.0656617577	data such as
0.0656614099	any problem
0.0656584541	faster than state of
0.0656558978	algorithm for approximate
0.0656538484	the art prediction
0.0656465936	used to explain
0.0656406509	only limited
0.0656400024	a sparsity
0.0656353829	biases into
0.0656307668	compute time
0.0656300308	these embeddings
0.0656241666	this brief
0.0656222261	learning problem with
0.0656213631	the joint representation
0.0656160501	a good representation
0.0656107370	bounds for learning
0.0656042453	and ultimately
0.0656038164	$ time algorithm
0.0655985326	for over parameterized
0.0655967540	this requirement
0.0655937606	in clinical practice
0.0655932957	vulnerabilities of
0.0655911922	become important
0.0655899009	the working
0.0655879350	the newly
0.0655864563	many advantages
0.0655853915	the probability of
0.0655814292	any learning algorithm
0.0655809560	the camera
0.0655776221	elimination of
0.0655753333	directions for
0.0655746484	the detector
0.0655719692	bound with respect to
0.0655711502	the oracle
0.0655704023	methods to deal
0.0655678422	a second
0.0655621905	a channel
0.0655608878	networks with latent
0.0655600209	on real world networks
0.0655558343	strong performance in
0.0655508178	work on
0.0655456392	a sparse vector
0.0655420138	a significantly smaller
0.0655394645	a comprehensive set
0.0655388201	often used
0.0655362766	a source
0.0655353775	different nodes
0.0655331099	these aspects
0.0655248820	gain in
0.0655226673	$ 80 \
0.0655174972	gaussian mean
0.0655035979	still difficult
0.0655015982	the cold
0.0654958619	the outstanding
0.0654928351	problem of adaptive
0.0654786917	an adapted
0.0654717908	different assumptions
0.0654692645	a machine learning framework for
0.0654662433	need for
0.0654643375	also identify
0.0654641215	better classification
0.0654623102	on simulated datasets
0.0654488885	convexity or
0.0654427434	a highly
0.0654401781	now well
0.0654387854	several possible
0.0654283080	a promising technique
0.0654272741	the other
0.0654197422	support for
0.0654003393	many reinforcement learning
0.0653970940	here propose
0.0653964926	the accumulated
0.0653929346	overall complexity
0.0653911708	a test sample
0.0653893596	the computational hardness
0.0653890946	empirical comparison of
0.0653860234	the observable
0.0653829052	the training objective
0.0653816000	minimax optimal for
0.0653797825	the triplet
0.0653753035	distributed over
0.0653735707	$ ^ +
0.0653664359	common practice in
0.0653622447	a novel regularizer
0.0653616222	end training of
0.0653572365	a discriminator network
0.0653536877	said to
0.0653492385	in many scenarios
0.0653440751	the proportional
0.0653432978	this relationship
0.0653428840	regression model for
0.0653423736	case of linear
0.0653412303	ratios of
0.0653379964	in doing
0.0653374482	all available
0.0653328171	of magnitude speedup
0.0653305180	to estimate uncertainty
0.0653272772	such as gender
0.0653268536	based methods for
0.0653261684	inference in deep
0.0653244350	for certifying
0.0653186838	parameter inference in
0.0653158063	the setting of
0.0653127138	on benchmark datasets
0.0653122156	typically do not
0.0653090353	in dynamic environments
0.0653015106	the auto encoder
0.0653003022	first review
0.0652914765	such as logistic regression
0.0652907215	sparsity of
0.0652825388	derived as
0.0652824160	architectures such as
0.0652813405	a directed acyclic
0.0652805749	a student
0.0652786501	the results obtained
0.0652760573	able to effectively
0.0652751545	the limit
0.0652751545	the derived
0.0652740590	the low degree
0.0652711743	do not guarantee
0.0652660198	without training
0.0652642536	different policies
0.0652626648	generalization error of
0.0652601059	\ improvement
0.0652576454	approximated in
0.0652540774	in general not
0.0652518822	by highlighting
0.0652501941	$ r ^ d
0.0652501098	on small datasets
0.0652417609	from demonstration
0.0652393446	$ n ^ \
0.0652356813	the local minimum
0.0652312417	citeseer and
0.0652259651	any local
0.0652240280	for molecular property
0.0652219685	non asymptotic bounds for
0.0652201376	with slight
0.0652132247	the hidden
0.0652099755	to make predictions
0.0652091265	a quadratic
0.0652076568	the gap
0.0652036721	the produced
0.0651974404	advantages in terms of
0.0651926363	a dense
0.0651908218	the outcome
0.0651899374	a conceptually simple
0.0651887571	the popularity
0.0651855722	further extended
0.0651783882	recent work in
0.0651760431	copy of
0.0651566122	and real datasets demonstrate
0.0651526542	the near future
0.0651512312	uniformity of
0.0651487469	on held out
0.0651486930	the simultaneous
0.0651458367	for image denoising
0.0651443757	paths in
0.0651378768	for evaluating
0.0651370210	follows from
0.0651314657	a nonconvex
0.0651220787	to break
0.0651170630	novel strategies
0.0651147634	experimental analysis of
0.0651140332	the eigenvalue
0.0651084879	the robustness
0.0651084879	the challenge
0.0651037660	an f1 score of
0.0651015907	published in
0.0650985034	the true labels
0.0650953300	the human
0.0650933997	impact of data
0.0650848680	to forget
0.0650829019	two objects
0.0650812295	this estimator
0.0650795376	algorithm to produce
0.0650757486	the broader
0.0650706390	the numerous
0.0650687996	only observe
0.0650652035	the problem of computing
0.0650585320	synthetic and
0.0650516752	the multi armed
0.0650502971	trained against
0.0650497742	understood in
0.0650434297	the counterfactual
0.0650396309	any target
0.0650368592	the number of measurements
0.0650366051	variety of deep
0.0650324367	two different domains
0.0650320010	the predefined
0.0650315842	between items
0.0650268040	leverage scores of
0.0650155253	typically use
0.0650135543	only through
0.0650121674	embedded with
0.0650113530	linear bandits with
0.0650104703	rule based on
0.0650098701	these local
0.0650060647	a key technique
0.0650014498	the matrix
0.0650006971	fluctuations of
0.0649988685	the algorithm's
0.0649980174	to degrade
0.0649966307	example images
0.0649929313	the onset
0.0649921896	to switch
0.0649894029	the duality gap
0.0649891157	the existing method
0.0649886118	this objective
0.0649821406	the device
0.0649812110	the ratio
0.0649684887	due to privacy concerns
0.0649679382	a human
0.0649642229	the instance level
0.0649635806	to face
0.0649570066	also investigate
0.0649563470	most important
0.0649561806	the optimality gap
0.0649534127	the convolutional neural network
0.0649406419	designed to work
0.0649323341	$ regularized least
0.0649320983	six state of
0.0649284331	q learning method
0.0649275050	needs only
0.0649221406	new instances
0.0649213132	by up to
0.0649211009	restriction to
0.0649195061	able to leverage
0.0649076041	automatic way
0.0648994422	study two
0.0648921383	the scalability
0.0648876718	more robust to noise
0.0648876635	no information
0.0648849562	a statistically significant
0.0648846917	a decoder
0.0648729425	evaluations show
0.0648727526	perspectives on
0.0648712989	for transferring
0.0648701268	a finer
0.0648617350	the reweighted
0.0648616187	a single image
0.0648580742	high number of
0.0648458093	on artificial and real world
0.0648444843	approach to linear
0.0648422582	performance superior to
0.0648397840	other sources
0.0648339107	a close
0.0648302210	especially as
0.0648265343	often outperforms
0.0648254195	in many real world problems
0.0648247914	to affect
0.0648234023	on off
0.0648191483	distributed system
0.0648188304	the intrinsic
0.0648153942	an interpolation
0.0648136908	implications on
0.0648128312	key step in
0.0647976715	the number of data samples
0.0647939594	the identity
0.0647908490	higher level of
0.0647898384	a substantial
0.0647853069	a negative result
0.0647792180	way using
0.0647790340	some specific
0.0647760583	freedom in
0.0647757017	the closed
0.0647721265	currently known
0.0647669359	to shed
0.0647590255	the covariance
0.0647563422	the powerful
0.0647515020	vectors from
0.0647497013	the worker
0.0647490642	for discovering
0.0647414388	the infinite width
0.0647385941	the k nearest neighbors
0.0647355185	the learning problem
0.0647349481	the comparative
0.0647338023	given query
0.0647302857	work makes
0.0647293537	the observation
0.0647293537	the population
0.0647172668	in order to generate
0.0647156881	developed under
0.0647103469	specific class of
0.0647103110	the rapidly growing
0.0647097831	the risk
0.0647049619	the base classifier
0.0647047744	best results
0.0647022199	$ grows
0.0646984391	consider here
0.0646974862	these analyses
0.0646962900	some unknown
0.0646958636	large fraction of
0.0646927793	a preferred
0.0646904239	these distances
0.0646876379	framework for sparse
0.0646845720	the start
0.0646844373	ability to make
0.0646825032	lower bound in
0.0646824310	an increasing interest in
0.0646790446	such as gpus
0.0646784206	an unbounded number of
0.0646783792	gradient descent algorithm to
0.0646683187	both general
0.0646613444	the meta training
0.0646491621	a global objective
0.0646424644	trajectories from
0.0646389592	new measure
0.0646332458	to adversarial attacks
0.0646319508	also verify
0.0646256492	the fitted model
0.0646243817	five datasets
0.0646226432	to contain
0.0646216555	not seen
0.0646188706	these reasons
0.0646171359	both benchmark
0.0646163726	beyond standard
0.0646111814	the complete data
0.0646104881	the support of
0.0646092312	to stay
0.0646091182	a generative model for
0.0646077504	a rich class of
0.0646038797	$ function
0.0646026641	a static
0.0645979042	the stock
0.0645978281	same convergence rate
0.0645964114	to differentiate
0.0645919284	widely used in machine
0.0645898023	a classical
0.0645898023	a baseline
0.0645853557	reinforcement learning approach to
0.0645790810	also offers
0.0645721332	a phenomenon
0.0645711502	a sample
0.0645641356	images without
0.0645612461	convergence speed of
0.0645608196	any assumptions
0.0645587701	algorithms for matrix
0.0645530871	amount of noise
0.0645529542	pervasive in
0.0645409345	2 \
0.0645380919	reward functions from
0.0645368592	the number of actions
0.0645295918	able to understand
0.0645272109	the creation
0.0645260347	$ 80
0.0645244558	distance from
0.0645224154	an independent
0.0645189113	various tasks
0.0645175788	the dynamic
0.0645175788	the individual
0.0645140028	the optimal point
0.0645107418	a message
0.0645055350	those cases
0.0645042554	a single global
0.0645009880	importance in many
0.0644994797	discussed in
0.0644958619	the arrival
0.0644931787	collaboration with
0.0644904379	several important
0.0644900309	three variants
0.0644887538	two reasons
0.0644866486	a continuum
0.0644865925	the feasibility of
0.0644863428	perform well in
0.0644800491	powerful than
0.0644781622	each policy
0.0644765021	the same group
0.0644759707	a novel methodology
0.0644662405	or partially
0.0644653648	a great impact
0.0644639936	the electric
0.0644621382	known bounds
0.0644561407	by product
0.0644547329	a trace
0.0644397022	the cognitive
0.0644387843	help of
0.0644371925	with high precision
0.0644348313	a diversity
0.0644307619	learning framework based on
0.0644258023	with minimal loss
0.0644257060	a pair
0.0644256076	the advantage
0.0644218248	the security
0.0644195622	mechanisms for
0.0644168357	necessary for
0.0644167711	develop three
0.0644148209	various downstream
0.0644147315	model selection in
0.0644147315	online learning in
0.0644128551	serious problem
0.0644105205	evaluate several
0.0644065000	compared to prior work
0.0643966240	solution based on
0.0643926282	a recurrent
0.0643874330	the intuition
0.0643868699	performance on image
0.0643854305	the principal components
0.0643758595	the course of
0.0643699970	by iteratively
0.0643691640	for optimizing
0.0643622643	often necessary
0.0643611028	incentives for
0.0643602398	to employ
0.0643580593	the node
0.0643553174	better trade off between
0.0643482795	gradients with
0.0643465999	the architectural
0.0643444603	and tibshirani
0.0643399561	inefficiency of
0.0643372120	the entire network
0.0643348125	two different
0.0643321102	invariant with respect to
0.0643284422	test based on
0.0643209569	a concrete
0.0643158063	the difficulty of
0.0643017191	a subspace
0.0642926447	representation learning via
0.0642912263	such as healthcare
0.0642900486	optimal values of
0.0642870114	experimental results on various
0.0642868403	the art convolutional
0.0642855706	the robot
0.0642844531	geometric approach to
0.0642843193	a huge
0.0642796602	induced from
0.0642758148	the original algorithm
0.0642737569	prognosis of
0.0642686054	groups based on
0.0642643003	other datasets
0.0642620248	a role
0.0642620114	experimental results on three
0.0642612128	the adverse
0.0642568402	an elastic
0.0642434915	an affinity
0.0642419732	user models
0.0642349481	the preliminary
0.0642309295	relation to
0.0642256922	the subspace
0.0642242252	various methods
0.0642144131	while taking
0.0642134677	further propose
0.0642132247	the likelihood
0.0642127824	the resulting method
0.0642121674	overlap in
0.0642097805	other variables
0.0642095724	stable under
0.0642087532	neural network model to
0.0642000154	than other
0.0641887376	an ordinary
0.0641859530	a better
0.0641842615	\ x_n \
0.0641829366	linear speedup in
0.0641820078	under different
0.0641782636	end to end models
0.0641744437	network based on
0.0641739831	an observational
0.0641731882	a dramatic
0.0641725163	any existing
0.0641723897	intervals for
0.0641700674	the generated images
0.0641676923	credibility of
0.0641659446	data in order
0.0641643984	for translating
0.0641605245	estimation of sparse
0.0641544835	the hypothesis
0.0641485116	compete for
0.0641411945	the first work
0.0641411317	the practice
0.0641397308	all stationary
0.0641254508	this strategy
0.0641129045	introduce here
0.0641076636	way to analyze
0.0641050733	usually rely
0.0641041643	still unknown
0.0641039103	a user specified
0.0640987789	the limit of large
0.0640983543	such as cancer
0.0640926871	the weaker
0.0640922668	in order to produce
0.0640741117	into meaningful
0.0640695763	the asymptotic
0.0640668012	to double
0.0640663750	the principal component
0.0640647307	to start
0.0640628179	the particle filter
0.0640543395	one dimensional data
0.0640512715	the generated
0.0640485923	atoms in
0.0640457835	in many real life
0.0640429696	conjectured to
0.0640425052	the number of basis
0.0640404796	convergence of gradient
0.0640389335	to accurately detect
0.0640347613	the signature
0.0640340663	an error
0.0640333999	such as clustering
0.0640332895	second layer
0.0640277040	an em algorithm
0.0640262874	field of deep
0.0640139630	the dimension of
0.0640102232	optimization with
0.0640066340	some known
0.0640024452	a grammar
0.0640014498	the prior
0.0640014498	the parameter
0.0640014498	the reward
0.0639993744	the classification result
0.0639988133	with increasing
0.0639974990	to harness
0.0639964701	iterative algorithm for
0.0639942691	by controlling
0.0639921896	to couple
0.0639917609	this barrier
0.0639900263	between patients
0.0639879221	so as
0.0639877248	a novel deep
0.0639863404	the baseline policy
0.0639856311	a widely used
0.0639837340	the selected features
0.0639830216	well even
0.0639798227	improved if
0.0639779877	network to extract
0.0639746746	the effectiveness
0.0639710825	the best
0.0639673588	the expert
0.0639653647	interest in
0.0639644323	even under
0.0639602949	various sources
0.0639499344	server to
0.0639387944	the wrong
0.0639381111	one order of magnitude
0.0639235243	a mask
0.0639229879	to automatically select
0.0639215742	a straightforward
0.0639206886	any linear
0.0639188574	to clarify
0.0639187036	different dimensions
0.0639162829	the cumulative reward
0.0639155899	unlabeled data from
0.0639154796	inference in high
0.0639104359	the unknown
0.0639092306	by collecting
0.0639076211	non trivial task
0.0639021321	the number of layers
0.0639019295	framework for robust
0.0638983848	to factorize
0.0638962870	attacks based on
0.0638958756	non convex nature of
0.0638938739	also provides
0.0638929336	by increasing
0.0638887105	the costly
0.0638855013	a hyper
0.0638825871	the self supervised
0.0638767635	monitoring of
0.0638731914	a big
0.0638721273	maximization over
0.0638701528	measurements from
0.0638652953	the few shot learning
0.0638584282	this scenario
0.0638549935	superposition of
0.0638519857	aspects such as
0.0638517416	information through
0.0638432009	these frameworks
0.0638427535	a conditional generative
0.0638415639	a field
0.0638258296	this paper aims
0.0638253743	no tuning
0.0638248110	a better fit
0.0638217985	a double
0.0638203616	value of
0.0638191004	universal approximation of
0.0638147849	sufficient number of
0.0638145811	the spectral
0.0638114429	a dissimilarity
0.0638077714	executed in
0.0638075619	the predictor
0.0638009954	by subsampling
0.0637996762	such constraints
0.0637982274	with numerous applications
0.0637958619	the terminal
0.0637948299	the marginal
0.0637948299	the minimal
0.0637945613	describe three
0.0637938832	$ test
0.0637820076	a character
0.0637791399	the evidence lower
0.0637773245	computer model
0.0637698654	a full rank
0.0637592975	the joint posterior
0.0637590255	the margin
0.0637561115	a simultaneous
0.0637559393	over previous methods
0.0637537979	the number of trees
0.0637469413	the q function
0.0637451089	images based on
0.0637422711	these operators
0.0637400143	a column
0.0637394570	the dtw
0.0637390072	semantic segmentation of
0.0637384651	a specialized
0.0637349481	the validity
0.0637339770	regularities in
0.0637332453	a convex loss
0.0637325662	the learning phase
0.0637286453	many time series
0.0637244970	differential equations with
0.0637188052	and vice
0.0637161347	several desirable
0.0637129800	tokens in
0.0637111414	the clustering process
0.0636987109	from different views
0.0636929975	a dictionary
0.0636898032	even without
0.0636868112	an index
0.0636779659	representations based on
0.0636778965	approach on real
0.0636703581	a general method
0.0636634048	effective use of
0.0636621034	technique to
0.0636615360	context of learning
0.0636573176	also yields
0.0636559393	most existing algorithms
0.0636468831	not correctly
0.0636444901	a confidence
0.0636443069	the error
0.0636423028	the problem of choosing
0.0636386184	the retrieval
0.0636384693	move from
0.0636339571	considerable interest in
0.0636319601	such scenarios
0.0636316340	frequently in
0.0636245266	the prior distribution
0.0636244910	a lot of research
0.0636210847	the exact recovery
0.0636096945	novel perspective
0.0636084879	the general
0.0636055458	also draw
0.0636024026	various computer vision
0.0635970125	requirements on
0.0635964893	explore various
0.0635949529	a spatiotemporal
0.0635943688	the application of deep learning
0.0635933142	without much
0.0635923588	the search
0.0635915530	a long
0.0635785659	a number
0.0635767086	the majority
0.0635634912	advantages and limitations of
0.0635607508	the same performance
0.0635602502	these formulations
0.0635558931	all time
0.0635536226	data set of
0.0635465123	not readily available
0.0635413800	rigorously show
0.0635407563	different components
0.0635389996	relaxation for
0.0635369502	different criteria
0.0635367935	a pervasive
0.0635335393	these heuristics
0.0635210615	a stage
0.0635199504	the need of
0.0635171906	to inspect
0.0635167609	an equivariant
0.0635167274	effectively use
0.0635028330	a pipeline
0.0635019265	for transforming
0.0634991645	a novel and efficient
0.0634973241	the number of model parameters
0.0634953577	a much simpler
0.0634925894	this basis
0.0634919272	also shows
0.0634901905	the feature dimension
0.0634867350	the regressor
0.0634851096	a relationship
0.0634801932	source domain to
0.0634727595	from observation
0.0634720415	present results for
0.0634704151	from different domains
0.0634639082	a directed
0.0634637567	a relatively small number
0.0634622294	the non convexity
0.0634613158	ensemble methods for
0.0634600566	lot of
0.0634578945	a detailed analysis
0.0634517415	the real valued
0.0634508669	require further
0.0634504148	two important
0.0634459368	approximations based on
0.0634435284	time guarantees
0.0634382606	an effective approach
0.0634312916	the hash
0.0634289359	the number of samples needed
0.0634139025	but more importantly
0.0634118792	methodology based on
0.0634109003	a computational
0.0634043399	a day
0.0634033546	necessary to
0.0634015402	likelihood estimates of
0.0633985806	a question
0.0633981219	proposed system
0.0633972288	and cifar 100 datasets
0.0633963059	protocols for
0.0633926282	a maximum
0.0633906206	a rich
0.0633898378	appropriate choice of
0.0633822114	to noise
0.0633807299	python package for
0.0633802569	the privacy loss
0.0633801226	$ | \
0.0633781939	do not take
0.0633725222	instrumental in
0.0633698944	the list
0.0633698944	a particle
0.0633594412	the computational complexity
0.0633594353	labeled by
0.0633572005	to differ
0.0633560405	simple modification of
0.0633538377	$ input
0.0633534093	the memory requirements
0.0633466888	the hyperbolic space
0.0633456187	this process
0.0633450526	empirically find
0.0633448121	the developing world
0.0633428639	for real time applications
0.0633387891	the new task
0.0633352042	bottleneck in
0.0633350840	a multiplicative
0.0633342325	often need
0.0633293181	a year
0.0633237678	first establish
0.0633230050	this threshold
0.0633177543	a form
0.0633145811	the group
0.0633065948	other methods
0.0633022867	methodologies for
0.0633006597	efficient use of
0.0632981449	three methods
0.0632901636	to isolate
0.0632855706	the induced
0.0632847834	in production
0.0632817976	while capturing
0.0632781629	an n
0.0632740111	the low level
0.0632679996	an efficient algorithm for
0.0632649491	to back
0.0632637960	the test dataset
0.0632630731	theoretical results show
0.0632563492	the moment
0.0632523996	the sentence
0.0632449062	mean accuracy
0.0632442661	particular task
0.0632420809	a set of objects
0.0632404796	captured in
0.0632325924	composed of two
0.0632325266	these time series
0.0632240842	the combinatorial
0.0632235543	useful as
0.0632179326	many statistical
0.0632141311	fraud detection in
0.0632112743	spectral embedding of
0.0632101962	the signal strength
0.0632032216	does not take
0.0632012115	bound based on
0.0631928576	of merit
0.0631888014	the classification accuracy
0.0631869980	this heuristic
0.0631844087	prediction with
0.0631812993	extended version of
0.0631807615	these theoretical results
0.0631727005	better stability
0.0631703422	represented with
0.0631683187	both estimation
0.0631616465	the precision
0.0631616051	problem of approximate
0.0631610821	the copula
0.0631551458	method proposed in
0.0631527324	the word embedding
0.0631376568	typically based on
0.0631352755	either discrete
0.0631352604	the detected
0.0631291474	detect anomalies in
0.0631289251	into question
0.0631221711	various machine
0.0631200636	neural nets with
0.0631176527	a primary
0.0631160816	needed by
0.0631144727	non convex nature
0.0631093336	to push
0.0631084879	the spatial
0.0631084879	the cost
0.0631057017	extensively used in
0.0631054981	a large gap
0.0631001080	the centralized
0.0630964893	developed within
0.0630936364	the hypothesis space
0.0630923327	ideal for
0.0630915639	a precision
0.0630898023	a sequential
0.0630838710	space based on
0.0630712377	these situations
0.0630662547	either only
0.0630633342	used to compare
0.0630562214	known from
0.0630512715	the result
0.0630508640	new domains
0.0630507546	only local
0.0630500356	this measure
0.0630481583	the synthesis
0.0630475039	output of
0.0630467967	also analyzed
0.0630458619	the bivariate
0.0630447901	natural notion of
0.0630444410	other baseline
0.0630416985	ask for
0.0630365611	the ridge
0.0630333752	better prediction performance
0.0630223897	controller for
0.0630222464	much like
0.0630217163	given by
0.0630202206	examined by
0.0630158316	a square
0.0630147594	$ boosting
0.0630100520	to investigate
0.0630064898	a reproducible
0.0630026020	deemed to
0.0630014498	the test
0.0629942823	the conditional independence
0.0629912483	a matrix completion
0.0629897683	the customer
0.0629892836	promising way to
0.0629855034	different noise
0.0629844842	a novel view
0.0629815743	a practical algorithm
0.0629780127	different sensors
0.0629777042	such as age
0.0629770877	transitions in
0.0629746746	the field
0.0629742446	a bipartite
0.0629734598	comparing different
0.0629716090	the membership
0.0629669178	enables better
0.0629626405	and usually
0.0629608305	looking for
0.0629553948	and meanwhile
0.0629520899	subjects with
0.0629489428	the number of trainable parameters
0.0629422697	presented by
0.0629412975	updated using
0.0629354509	of fundamental importance
0.0629270310	the unobserved
0.0629260002	this motivation
0.0629249652	and materials science
0.0629233871	only need
0.0629226211	different actions
0.0629185467	to illustrate
0.0629151343	practical value
0.0629127086	system uses
0.0629075472	this work explores
0.0628996957	dimensionality reduction for
0.0628996003	to flow
0.0628919975	the local geometry
0.0628913896	to conduct
0.0628912975	incomplete or
0.0628884774	effectiveness and efficiency of
0.0628850982	the growth
0.0628843739	via simulation
0.0628839468	and independently
0.0628829261	via stochastic gradient
0.0628766374	the embedded space
0.0628735304	able to obtain
0.0628727173	whole system
0.0628715063	by computing
0.0628702892	performance in various
0.0628681482	map between
0.0628648925	framework for stochastic
0.0628630449	the proposed clustering
0.0628582542	the number of episodes
0.0628546679	combines several
0.0628537420	to partition
0.0628536646	this modified
0.0628522060	the pure
0.0628397265	group of
0.0628384524	data by means
0.0628376173	or other
0.0628367538	approach by
0.0628321021	three sub
0.0628313739	updated in
0.0628300715	results on three
0.0628275025	to let
0.0628209765	the design
0.0628190842	a fraud
0.0628186225	the final classification
0.0628085880	object detection in
0.0628079229	diversity in
0.0628061691	to exceed
0.0628024073	mostly on
0.0628022074	approaches do not
0.0627998344	start of
0.0627984256	the large hadron
0.0627949861	the big
0.0627909314	collected under
0.0627906852	a learning machine
0.0627804954	a parametric family
0.0627785969	integrity of
0.0627779221	use only
0.0627777065	a separation
0.0627754192	cost associated with
0.0627706050	the predictive distribution
0.0627704666	an absolute
0.0627692661	better control
0.0627680842	the microscopic
0.0627653769	inference problems in
0.0627618699	application to large
0.0627607032	often available
0.0627564176	always possible
0.0627537774	these dependencies
0.0627529678	the art machine learning models
0.0627497216	a conditional
0.0627490320	a single type
0.0627482427	a vehicle
0.0627473400	the transport
0.0627471099	empirical results on several
0.0627458700	contains multiple
0.0627434585	predicted to
0.0627433727	contain only
0.0627408835	the client
0.0627358572	generate more
0.0627348933	a critical task
0.0627338507	not occur
0.0627261872	a full
0.0627252452	this alignment
0.0627190956	the reservoir
0.0627180179	a systematic analysis
0.0627174534	the coupled
0.0627123377	n \ cdot
0.0627114966	to scale
0.0627107625	same dataset
0.0627101016	the reasons behind
0.0627097831	the variational
0.0627076754	for predicting
0.0627000109	the drawback
0.0626979583	the orthogonality
0.0626970649	to automatically generate
0.0626964982	into multiple
0.0626854372	research directions in
0.0626777325	rather than relying
0.0626748936	latent structure in
0.0626745555	training algorithms for
0.0626706390	the music
0.0626681121	the art ensemble
0.0626643119	an actual
0.0626604359	the statistical
0.0626604359	the conditional
0.0626602060	this combinatorial
0.0626529490	do not leverage
0.0626508078	optimizers for
0.0626495849	a timely
0.0626398250	policy under
0.0626387191	a specification
0.0626360967	generation with
0.0626339410	the article
0.0626329168	the number of model
0.0626317670	define two
0.0626235383	inference procedure for
0.0626192966	certain cases
0.0626175871	reduction technique for
0.0626099195	transformed to
0.0626085221	the training error
0.0626084879	the theory
0.0626078050	and well studied
0.0626077504	a large fraction of
0.0626008017	to mine
0.0626007910	the most powerful
0.0625956787	to operate
0.0625915639	a flow
0.0625910255	the reason
0.0625867763	the difficulty
0.0625805458	an overcomplete
0.0625774188	logarithmically in
0.0625735382	a newly proposed
0.0625735290	described as
0.0625732188	to win
0.0625719282	no assumption
0.0625718362	not all
0.0625703675	the inverse
0.0625703510	those parameters
0.0625682683	decomposition into
0.0625652619	the trained network
0.0625628338	non parametric density
0.0625596944	the new
0.0625516971	both intra
0.0625437097	adaptive control of
0.0625365611	a shift
0.0625315412	to better
0.0625260768	the core
0.0625257890	to decide whether
0.0625250746	theory provides
0.0625233506	a private
0.0625229182	than 30
0.0625175788	the variance
0.0625175788	the common
0.0625090052	datasets like
0.0625056431	the basics
0.0625029955	the expensive
0.0625028228	three publicly available
0.0625001596	to visit
0.0624954094	the stacked
0.0624889427	the same method
0.0624881153	\ cdot \
0.0624867350	the decoupled
0.0624782943	method using
0.0624770872	sequences into
0.0624765303	the sketch
0.0624740497	a beta
0.0624720565	a new algorithm called
0.0624695462	the restriction
0.0624650528	either assume
0.0624648277	the alternating direction
0.0624620783	a new line
0.0624617519	the proposed cnn
0.0624591522	an alternative way
0.0624578416	a free
0.0624509350	a new sampling
0.0624502376	the physics
0.0624452351	submanifold of
0.0624444266	metrics based on
0.0624424556	rather than relying on
0.0624349248	consider two
0.0624322306	different events
0.0624313975	possible to train
0.0624307668	produce more
0.0624283338	a hundred
0.0624276001	events from
0.0624146757	realm of
0.0624126131	a variety of settings
0.0624059656	the course
0.0624058668	the neural network's
0.0624020956	to defend against
0.0623979629	various architectures
0.0623962460	also enables
0.0623953072	such as robustness
0.0623943307	to highlight
0.0623942332	such matrices
0.0623918765	estimator under
0.0623913658	or approximately
0.0623721225	and qualitatively
0.0623596750	b \ |
0.0623590455	implicit regularization of
0.0623556073	for analyzing
0.0623549152	measure based on
0.0623490032	minimizer of
0.0623369718	the back
0.0623351100	constraint into
0.0623294831	in function space
0.0623265343	some probability
0.0623222546	$ \ infty
0.0623204566	any supervised
0.0623178781	policy based on
0.0623122548	algorithm relies on
0.0623121797	to encompass
0.0623043450	metric of interest
0.0623041953	the heat
0.0623014232	the approximation
0.0622990304	estimation based on
0.0622971944	two kinds of
0.0622946351	the aim
0.0622905901	items from
0.0622897982	other settings
0.0622874017	a dynamical system
0.0622869929	data sets from
0.0622843193	a valuable
0.0622843193	to balance
0.0622840852	method compared to
0.0622812477	the tensor
0.0622745993	a hard problem
0.0622736567	the overlapping
0.0622717985	to follow
0.0622653822	power than
0.0622640709	the curse of
0.0622632605	a rigorous theoretical
0.0622616651	practical value of
0.0622602232	function with
0.0622599966	trend of
0.0622545976	the exponential family
0.0622513450	the computational
0.0622478018	correlated time
0.0622453847	models via
0.0622432270	the population loss
0.0622389527	regularization for
0.0622381176	a fundamental problem in
0.0622369253	the electricity
0.0622367350	the website
0.0622329823	a similarity metric
0.0622325690	for out of distribution
0.0622294033	a hybrid model
0.0622293537	the dual
0.0622278065	three public
0.0622270543	by finding
0.0622260015	the anomaly score
0.0622259121	the decision
0.0622255199	each data
0.0622214994	together for
0.0622213102	the hidden layers
0.0622161347	various scientific
0.0622155654	a semidefinite
0.0622108494	the set of
0.0622091265	a minimum
0.0622046575	a different
0.0622041830	the number of dimensions
0.0622008059	possible future
0.0621912295	the preconditioned
0.0621857533	for aggregating
0.0621779810	to proactively
0.0621751734	this document
0.0621738129	logarithmic in
0.0621704449	any change
0.0621698961	begin to
0.0621693491	proposed method uses
0.0621579977	this non convex
0.0621553814	a public
0.0621545888	possible by
0.0621531021	spectral clustering on
0.0621499023	supervised approach to
0.0621489312	the feature matrix
0.0621473239	the submatrix
0.0621426481	regularization for deep
0.0621392230	without computing
0.0621359813	by bounding
0.0621350525	a mixture
0.0621287060	\ mathcal t
0.0621246482	this paradigm
0.0621245719	applicable to many
0.0621245612	a domain expert
0.0621232147	different factors
0.0621205765	and almost
0.0621205269	a new definition
0.0621200053	a key feature of
0.0621110472	work focuses on
0.0621084879	the generalization
0.0621084879	the energy
0.0621084879	the functional
0.0621053433	testbed for
0.0621033016	most practical
0.0621000840	fixed point of
0.0620983112	the measurement matrix
0.0620930961	to interpolate
0.0620892535	predictions across
0.0620890074	the theoretical
0.0620881187	scales better
0.0620877514	and non smooth
0.0620873317	to belong
0.0620848722	further introduce
0.0620753077	without taking
0.0620742837	any type of
0.0620738201	curriculum learning for
0.0620706585	quantization for
0.0620660788	the data fitting
0.0620608660	over existing
0.0620570133	development of deep
0.0620568663	but also improves
0.0620563482	produced from
0.0620553858	to cut
0.0620511497	yet simple
0.0620487214	\ times d
0.0620480956	the ising model
0.0620479377	objects with
0.0620471064	inner workings of
0.0620442804	either do not
0.0620368929	to borrow
0.0620309631	the proposed active
0.0620264175	the gradual
0.0620246296	ones from
0.0620149248	novel loss
0.0620090255	the residual
0.0620030801	on test data
0.0620014498	the label
0.0619923614	several known
0.0619904380	needs of
0.0619791058	the rate
0.0619729286	datasets with different
0.0619602723	loss function with
0.0619596388	interpretability of deep
0.0619559115	mixtures of two
0.0619526595	the theoretical results
0.0619503234	by making
0.0619502868	a detailed study
0.0619484369	any particular
0.0619453960	some classes
0.0619429826	does not perform
0.0619385472	a sufficiently
0.0619372184	all baselines
0.0619341733	the multi view
0.0619256523	for learning bayesian
0.0619238040	the major
0.0619181443	a given query
0.0619125286	the radial
0.0619093910	also characterize
0.0619080365	some natural
0.0619079020	this aspect
0.0619059219	managed to
0.0619046599	to control
0.0619038583	this paper focuses on
0.0619033900	\ y
0.0619025989	a balanced
0.0619011755	to give
0.0618989857	generalized to
0.0618981187	$ p \
0.0618970745	the art rl
0.0618966260	the vertices
0.0618942354	outlier detection in
0.0618938739	all other
0.0618820844	stochasticity of
0.0618800277	challenging because of
0.0618794766	by recursively
0.0618786909	the point cloud
0.0618723881	two issues
0.0618722401	to learn policies
0.0618714883	proposed in order
0.0618700644	this special
0.0618690996	the task of estimating
0.0618689451	a fundamentally
0.0618626452	to gauge
0.0618626131	sequences from
0.0618617350	the toolbox
0.0618604794	in order to facilitate
0.0618498970	certain types
0.0618492371	summaries of
0.0618478734	a set of items
0.0618448354	leads to more
0.0618397265	approximation for
0.0618372302	a newly
0.0618349853	both domain
0.0618321759	joint distribution of
0.0618314425	a relatively
0.0618312184	property of deep
0.0618307833	^ q
0.0618307101	the discrete
0.0618294852	a single hidden
0.0618079937	the input variables
0.0617943766	the ordinary least squares
0.0617925999	kernels based on
0.0617872106	the methodology
0.0617870113	detection performance of
0.0617868950	^ * \ in \
0.0617834033	then develop
0.0617830941	a knowledge base
0.0617745029	not only improves
0.0617745022	causal inference from
0.0617723239	the reciprocal
0.0617662123	a nuclear
0.0617643016	able to solve
0.0617593538	a characteristic
0.0617564648	both unsupervised and supervised
0.0617518203	a factorization
0.0617517552	global minima of
0.0617499375	accuracy by
0.0617378274	non target
0.0617353209	wide use
0.0617320581	the wind
0.0617259830	or too
0.0617181496	non asymptotic analysis of
0.0617164350	the updated
0.0617122973	empirical evidence for
0.0617121973	a cardinality
0.0617061498	the subsequent
0.0617019586	take into
0.0616971429	most fundamental
0.0616963818	the change point
0.0616953171	recovery via
0.0616887947	inference with
0.0616874508	without using
0.0616860535	to reverse
0.0616827915	recent line of work
0.0616779221	made with
0.0616734739	think of
0.0616624223	not possible
0.0616483933	these schemes
0.0616441649	a classification
0.0616422817	first present
0.0616347748	attention in
0.0616343824	testing for
0.0616332769	a new optimization
0.0616317368	most well known
0.0616299258	to account for
0.0616259696	a weak
0.0616257932	the package
0.0616195624	the validation set
0.0616184312	important application of
0.0616182331	do not generalize
0.0616128358	a conceptually
0.0616095906	on various datasets
0.0616043041	the patient
0.0616006902	often make
0.0615990163	each event
0.0615925369	with inexact
0.0615910295	algorithms perform well
0.0615885304	to reject
0.0615830008	a chaotic
0.0615798530	a ball
0.0615777692	a low dimensional representation of
0.0615759757	further assumptions
0.0615735770	to force
0.0615705246	and globally
0.0615674745	designs with
0.0615649559	biased in
0.0615608542	the popular
0.0615600659	complexity with respect to
0.0615599377	used in computer vision
0.0615586849	mean squares
0.0615534013	able to optimize
0.0615520773	or higher
0.0615461299	a hidden layer
0.0615438536	another one
0.0615384292	this algorithm
0.0615382813	do not use
0.0615318937	the taxonomy
0.0615296924	the non asymptotic
0.0615260573	used during training
0.0615251545	the chosen
0.0615175788	the community
0.0615175788	the probability
0.0615175788	the temporal
0.0615160584	novel model
0.0615132706	not simply
0.0615127546	$ 1 n
0.0615114066	the proximal mapping
0.0615077667	the prevalence
0.0615075174	both node
0.0614995924	the competition
0.0614947274	model outperforms other
0.0614946051	needs to learn
0.0614906388	such as robotics
0.0614873041	statistical analysis on
0.0614810405	sample efficient than
0.0614807413	a certain level of
0.0614784393	the importance
0.0614751261	to image synthesis
0.0614649339	look to
0.0614602962	exactly with
0.0614600277	the contextual bandit
0.0614558471	several researchers
0.0614557353	solutions found
0.0614501403	different time
0.0614461502	the selected
0.0614415606	a theory of
0.0614330763	the head
0.0614266971	by revisiting
0.0614185772	for inferring
0.0614170760	among other
0.0614166545	guidance for
0.0614152524	samples within
0.0614125286	the disagreement
0.0614125286	the expanded
0.0614093403	a new estimator
0.0614049153	the hyper parameter
0.0614004205	proportions of
0.0614003701	any deterministic
0.0614003299	efficient in terms of
0.0613939045	the alternative
0.0613931340	traditional methods for
0.0613925299	expand on
0.0613916626	both positive and negative
0.0613913640	two modalities
0.0613902266	to pose
0.0613884279	to raise
0.0613860234	the electronic
0.0613814804	to select features
0.0613801555	any graph
0.0613797825	the span
0.0613764797	the internal
0.0613745797	tested on two
0.0613729944	directly into
0.0613699970	by adaptively
0.0613686702	first develop
0.0613586921	not fit
0.0613548999	end to end using
0.0613532150	to cover
0.0613524790	theoretic analysis of
0.0613504626	first derive
0.0613499091	for speeding
0.0613487156	explore three
0.0613453077	purely from
0.0613307101	the sparsity
0.0613300971	way of
0.0613267015	all reduce
0.0613249109	by changing
0.0613225129	a shape
0.0613214486	$ x_i \
0.0613193917	among multiple
0.0613193684	the art reinforcement
0.0613117025	often applied
0.0613086877	a heuristic algorithm
0.0613076523	accuracy over
0.0613014232	the random
0.0612993302	intuition of
0.0612977856	setting using
0.0612960513	lower mean
0.0612948404	the need for manual
0.0612941874	the mismatch
0.0612926716	effects between
0.0612915704	top of
0.0612794984	rather than on
0.0612778108	discovery via
0.0612763954	all states
0.0612761135	for approximating
0.0612737569	assessments of
0.0612734888	most tasks
0.0612720588	evaluated in terms of
0.0612702393	run in
0.0612650210	such as financial
0.0612644767	the dominating
0.0612606653	a tight lower
0.0612595632	several classifiers
0.0612575580	an otherwise
0.0612563266	the base model
0.0612543928	a novel training
0.0612538671	the pixel
0.0612501744	inference algorithms for
0.0612457380	the uniform
0.0612447484	the prototype
0.0612438692	online version of
0.0612395322	structures from
0.0612389527	exploration in
0.0612384374	similar but
0.0612283645	a large portion of
0.0612277614	a pressing need
0.0612272531	definiteness of
0.0612260510	first introduce
0.0612219874	a type
0.0612152434	a general family of
0.0612103061	increasingly used in
0.0612088708	a hypothetical
0.0611998875	each approach
0.0611986677	the salient
0.0611978130	the unavailability
0.0611927243	these concepts
0.0611904964	linearization of
0.0611904964	factorizations of
0.0611805529	30 \
0.0611794212	$ b \
0.0611771226	extensive experiments on several
0.0611754049	the converse
0.0611739917	a small portion of
0.0611727631	all domains
0.0611724521	on three
0.0611721769	these days
0.0611650435	applied for
0.0611619159	a coreset
0.0611565904	separability of
0.0611552778	popular approach to
0.0611539201	for two reasons
0.0611497347	more and more popular
0.0611439867	the criterion
0.0611390028	the true function
0.0611322114	a scale
0.0611309323	the difference between
0.0611286399	do not provide
0.0611274301	achieved under
0.0611269875	performed under
0.0611249927	$ u \
0.0611241794	using synthetic
0.0611239370	collected for
0.0611230805	by up
0.0611193320	the geometric
0.0611147060	further exploit
0.0611145541	a scenario
0.0611105989	the proposed classifier
0.0611093910	two critical
0.0611062115	attention mechanism for
0.0611058498	embeddings into
0.0611048482	analysis for
0.0611014446	the old
0.0610941532	kernels for
0.0610939700	graphical models with
0.0610930061	differentiability of
0.0610901824	patterns across
0.0610894338	very complex
0.0610816204	the transformed
0.0610814425	enough to
0.0610807744	samples into
0.0610790754	verified on
0.0610746110	make full use of
0.0610711015	dynamics within
0.0610708655	no human
0.0610702967	density estimation using
0.0610682138	experimental results on two
0.0610655859	over competing
0.0610558314	learners with
0.0610553858	a passive
0.0610546257	the intrinsic dimension
0.0610512715	the obtained
0.0610507698	uncertainty associated with
0.0610332016	intersections of
0.0610306194	content of
0.0610290001	the mean reward
0.0610254124	those used
0.0610241096	a complementary
0.0610219393	the original sample
0.0610155028	on synthetic and real world datasets
0.0610153543	in stark
0.0610129310	on six benchmark datasets
0.0610122735	to separate
0.0610110271	particular interest
0.0610093706	on commodity
0.0610083538	many computer vision
0.0610048630	such as word2vec
0.0610031757	some existing
0.0610019177	not observed
0.0610014498	the convergence
0.0609988974	either case
0.0609976062	controllers for
0.0609929770	only observed
0.0609854817	classification tasks with
0.0609789590	topology of
0.0609751376	than existing algorithms
0.0609722853	boundary of
0.0609698284	decrease with
0.0609610751	signal propagation in
0.0609596388	power of graph
0.0609557024	same group
0.0609555563	to capture temporal
0.0609542693	\ theta ^
0.0609471286	the art methods in
0.0609434716	planning with
0.0609379599	the space of probability
0.0609353752	across various
0.0609335321	extensively on
0.0609316191	the most relevant features
0.0609311983	robust to changes
0.0609310002	able to overcome
0.0609303084	motivation from
0.0609281331	the maximum number
0.0609213290	a new way of
0.0609211015	solutions than
0.0609171479	novel formulation
0.0609111783	observation models
0.0609096094	the pre trained
0.0609059219	afford to
0.0609018737	also shown
0.0608955142	the first provable
0.0608938739	then use
0.0608807431	first algorithm
0.0608785778	the problem of controlling
0.0608737713	different choices of
0.0608681682	body of
0.0608675449	a fraction of
0.0608654792	strategies based on
0.0608600573	compare three
0.0608519244	the discussion
0.0608514671	the seed
0.0608502297	by generating
0.0608484276	able to successfully
0.0608470063	unit models
0.0608466453	for segmenting
0.0608452222	a polynomial time algorithm
0.0608403252	used to choose
0.0608382255	an inaccurate
0.0608376408	a differentially
0.0608364364	the gradient flow
0.0608348590	also indicate
0.0608332159	new categories
0.0608294642	the long range
0.0608245705	context of neural
0.0608226298	the proposed measure
0.0608226228	feature selection as
0.0608192608	both convex and nonconvex
0.0608175522	the computation
0.0608133778	even more
0.0608127876	potentials for
0.0608123013	such as autonomous vehicles
0.0608048434	less complex
0.0608010310	set of possible
0.0608004715	not taken
0.0607978100	a wavelet
0.0607964982	then provide
0.0607903700	heuristic for
0.0607891556	a plug in
0.0607884781	iterative algorithms for
0.0607875550	a location
0.0607871855	a novel data driven
0.0607846581	mean value
0.0607820292	the defense
0.0607812785	a parametric model
0.0607760768	to test
0.0607752754	the task of predicting
0.0607680842	the queried
0.0607675066	the domain specific
0.0607666963	the skew
0.0607656168	the proposed kernel
0.0607606455	with little
0.0607598248	\ | \ cdot \ |
0.0607590255	the mixture
0.0607565576	often modeled
0.0607532966	a broad spectrum
0.0607521150	various techniques
0.0607494779	different data distributions
0.0607451396	non gradient
0.0607419078	for managing
0.0607343246	many existing algorithms
0.0607343076	to grasp
0.0607325209	a new data driven
0.0607297441	a gaussian prior
0.0607265387	a widely studied
0.0607153871	both simulated
0.0607153242	not directly
0.0607086862	a dimensionality
0.0607072338	the main objective
0.0607040462	demonstrates better
0.0606995255	a classic
0.0606991831	four datasets
0.0606990968	to edge
0.0606977444	2 \ varepsilon
0.0606971572	the payoff
0.0606955041	sets from
0.0606940772	test accuracy on
0.0606905813	taken for
0.0606897436	to lift
0.0606893682	quality compared to
0.0606836402	the united
0.0606785281	many possible
0.0606703619	important challenge in
0.0606689312	models with latent variables
0.0606685985	a target variable
0.0606620593	a learned
0.0606620593	the complete
0.0606619350	further exploration
0.0606536414	latency by
0.0606462819	locations of
0.0606450024	results rely on
0.0606420606	a deeper understanding of
0.0606418976	causal effects of
0.0606407459	the code
0.0606394832	the controller
0.0606384548	contains many
0.0606383545	the game
0.0606381248	to study
0.0606364204	for many years
0.0606288341	alignment with
0.0606265509	an adaptation
0.0606260927	the affinity matrix
0.0606152524	architecture allows
0.0606131560	behavior than
0.0606120732	want to find
0.0606106369	fast training of
0.0606094468	for selecting
0.0606092172	driven approach to
0.0606041806	to out of distribution
0.0606018039	as good
0.0605966779	a multi armed
0.0605965497	learning algorithm to
0.0605942691	these advantages
0.0605904910	two real
0.0605895368	and then applies
0.0605879609	often seen
0.0605810678	very hard
0.0605756917	an accessible
0.0605697516	far better
0.0605680152	$ \ sigma ^
0.0605647715	graphs into
0.0605612277	used to derive
0.0605604290	a rare
0.0605541213	improved version of
0.0605418576	the affinity
0.0605405581	frequently used in
0.0605383072	simple but
0.0605341053	relationship with
0.0605317955	each level
0.0605315222	computational burden of
0.0605250073	both convex
0.0605235742	solved in
0.0605191928	to work with
0.0605175788	the relevant
0.0605138551	a new data
0.0605134812	this game
0.0605108782	a novel approach to
0.0605092386	the inevitable
0.0605090052	labels into
0.0605029684	the ability
0.0605026480	these principles
0.0604990826	between two distributions
0.0604978181	to try
0.0604964556	some situations
0.0604929698	on standard benchmarks
0.0604862328	effective approach for
0.0604860540	the multi agent
0.0604805841	different real world
0.0604800873	to ease
0.0604779863	$ satisfying
0.0604770403	$ m \
0.0604763740	anomaly detection for
0.0604722101	satisfied for
0.0604704995	most significant
0.0604684552	function based on
0.0604642957	a high degree
0.0604633234	the mean
0.0604605487	the optimal sample
0.0604604190	an accurate prediction
0.0604582942	the catastrophic forgetting
0.0604575842	the most prominent
0.0604555563	curvature of
0.0604513506	the art methods in terms of
0.0604501461	ingredient for
0.0604497415	not known
0.0604484876	the convergence rate of
0.0604467638	way to
0.0604427434	a lower
0.0604423634	a fundamental task
0.0604421372	other existing methods
0.0604329605	for building
0.0604280194	abnormalities in
0.0604246781	the computational complexity of
0.0604239913	promising results for
0.0604179209	and synthetic data sets
0.0604146395	other classes
0.0604121973	the tendency
0.0604029967	the naive
0.0604008255	dynamic behavior of
0.0603998612	regardless of whether
0.0603990340	only require
0.0603937752	mixture model for
0.0603890403	often suffer
0.0603873776	to anticipate
0.0603834839	a modified version
0.0603764012	the first phase
0.0603712043	and potentially
0.0603698944	the super
0.0603684406	dimension reduction for
0.0603669207	squared error for
0.0603603003	the geometrical
0.0603601314	two cases
0.0603551103	help address
0.0603522351	the model learns
0.0603479302	a single class
0.0603466608	any estimator
0.0603455551	known labels
0.0603448289	different patterns
0.0603409031	a hot
0.0603391706	setting of
0.0603389345	the extension
0.0603331214	vertices of
0.0603313375	the new approach
0.0603267183	the designer
0.0603263522	in part
0.0603239542	the seminal
0.0603221199	a one parameter
0.0603213417	to favor
0.0603145811	the distance
0.0603144845	measured as
0.0603123840	this category
0.0603037624	a frame
0.0602973292	the transition probabilities
0.0602962997	while also
0.0602867350	the layout
0.0602836896	edges in
0.0602835990	growing need for
0.0602777542	condition under
0.0602751545	the negative
0.0602707018	integrals of
0.0602691875	a statistical
0.0602679028	this practice
0.0602655575	the abstract
0.0602643563	the pool
0.0602582196	a reduced
0.0602582037	in diagnosing
0.0602550946	between classes
0.0602540734	the first method
0.0602521907	to fix
0.0602513304	a consistent
0.0602473400	the magnitude
0.0602413356	subsequently used to
0.0602386288	the task of finding
0.0602342152	future work on
0.0602319601	each classifier
0.0602315291	way by
0.0602312962	without human
0.0602312110	the shift
0.0602310569	done on
0.0602259121	the predictive
0.0602248903	more often
0.0602218399	to image translation
0.0602212617	likelihoods for
0.0602150683	key challenge for
0.0602124688	the problem of maximizing
0.0602097129	with strong theoretical
0.0602072278	together by
0.0602061055	found in
0.0602016680	a provably
0.0601992677	expensive in terms of
0.0601985098	non parametric models
0.0601981560	evaluate three
0.0601921812	important property of
0.0601878413	way to reduce
0.0601858349	novel regularizer
0.0601851953	the surface
0.0601799913	unifying framework for
0.0601775612	generation for
0.0601708233	to take advantage
0.0601679308	an analysis of
0.0601635419	and future directions
0.0601631593	the winning
0.0601580114	the block coordinate
0.0601565904	rows of
0.0601535726	approximations for
0.0601503059	the vertex
0.0601486930	the annotation
0.0601483892	a constrained
0.0601472176	to reuse
0.0601436772	possible under
0.0601421806	the required
0.0601291046	a simple model
0.0601267049	generally used
0.0601250820	the softmax layer
0.0601237678	several related
0.0601231911	on nine
0.0601202623	code for
0.0601093531	each output
0.0600964483	also easily
0.0600958616	$ \ alpha \ in
0.0600933398	the inverse covariance
0.0600921322	inverse problems with
0.0600909481	the subproblem
0.0600898858	poor performance in
0.0600879772	an effective solution
0.0600851037	done through
0.0600800877	algorithm against
0.0600774972	taken as
0.0600764217	dependencies in
0.0600749739	every pair
0.0600748017	any single
0.0600727687	few data points
0.0600708785	to unveil
0.0600663520	a hierarchy
0.0600638538	the increased
0.0600583946	exists in
0.0600553132	machines with
0.0600500942	an aggregated
0.0600415458	tale of
0.0600375550	the period
0.0600366051	efficiency of deep
0.0600339882	the low
0.0600290312	do not exploit
0.0600289998	to constant factors
0.0600242861	for non smooth
0.0600200716	a common representation
0.0600183419	to automatically detect
0.0600178416	to average
0.0600158212	with linear constraints
0.0600154950	the model achieves
0.0600126150	1 \ sqrt \
0.0600119250	usability of
0.0600106606	the number of machines
0.0600092815	a setting
0.0600079734	theoretical foundations of
0.0600076326	$ \ x_i
0.0600056041	visual system
0.0600013304	a potential
0.0600012386	the modal
0.0599975872	the notorious
0.0599972124	by propagating
0.0599958891	a probabilistic generative
0.0599906604	models do not
0.0599898227	weights during
0.0599841904	the infinite dimensional
0.0599824779	conducted to show
0.0599797512	the suggested
0.0599793234	optimized with
0.0599791058	the estimation
0.0599746746	the baseline
0.0599706059	the thermal
0.0599680842	the geodesic
0.0599626073	model uncertainty in
0.0599595849	a reparameterization
0.0599579445	by doing
0.0599570066	also analyze
0.0599518469	the broad
0.0599504401	both graph
0.0599495447	automation of
0.0599484678	the underlying state
0.0599429030	a reward signal
0.0599427434	a higher
0.0599369008	the first successful
0.0599363942	then propose
0.0599341733	the multi label
0.0599302568	the multi dimensional
0.0599286360	each machine
0.0599268333	better empirical
0.0599215742	a preliminary
0.0599204060	the cumulative
0.0599190881	the benefit of
0.0599148532	structural information of
0.0599124894	a blackbox
0.0599113432	such as noise
0.0599064438	a matrix factorization
0.0598990426	good behavior
0.0598979157	the official
0.0598951372	both signal
0.0598938739	also find
0.0598917746	also reduces
0.0598862568	the trade off
0.0598837875	regularizer for
0.0598836335	for computer aided
0.0598788247	the mean field approximation
0.0598784619	the true value function
0.0598747148	a blind
0.0598711634	superior to other
0.0598665753	\ ^ n
0.0598665753	^ n \
0.0598647168	the data points
0.0598626702	the manipulation
0.0598621581	a mean
0.0598575792	even better performance
0.0598563460	many techniques
0.0598545011	issue by
0.0598533313	objects without
0.0598510680	of observed entries
0.0598458619	the eigen
0.0598430061	completeness of
0.0598406509	also demonstrated
0.0598395276	in many fields
0.0598366310	a complex model
0.0598352790	from i.i.d
0.0598327197	\ times k
0.0598289536	does not require access
0.0598285715	composed of several
0.0598194996	a penalized
0.0598163915	from historical data
0.0598155750	well modeled
0.0598145811	the attack
0.0598145811	the generative
0.0598145811	the sequence
0.0598100742	the suboptimality
0.0598028260	to plan
0.0598013698	each phase
0.0598006922	the bias
0.0597986576	this principle
0.0597955078	a complex
0.0597835904	an optical
0.0597826678	accurate as
0.0597825170	learning under
0.0597762001	such as finding
0.0597757082	the time
0.0597750194	various datasets
0.0597744065	labels by
0.0597725558	supervised way
0.0597702394	theory of deep
0.0597680946	the extreme
0.0597650929	and possibly
0.0597621892	a semantic
0.0597613130	to feed
0.0597570078	given only
0.0597567118	the lasso
0.0597496247	in terms of speed
0.0597468501	the hierarchy
0.0597457501	the curve
0.0597434585	adaptation with
0.0597413778	the non parametric
0.0597396944	estimators with
0.0597393672	few observations
0.0597369859	the paper presents
0.0597360302	learning problem as
0.0597355185	the probability distribution
0.0597354232	discovered in
0.0597344260	the introduction
0.0597282976	embeddings based on
0.0597267120	method results in
0.0597240842	the crucial
0.0597223983	superior performance on
0.0597215100	most promising
0.0597170495	condition number of
0.0597030284	for measuring
0.0597025681	a set of candidate
0.0597004813	a reproducing
0.0596938238	parameters across
0.0596897985	the fairness
0.0596892777	$ constraint
0.0596852470	a new multi
0.0596792217	a discrepancy
0.0596739831	an insight
0.0596707397	framed in
0.0596702684	various factors
0.0596695145	trained under
0.0596670978	the softmax function
0.0596643367	used to forecast
0.0596532862	a segment
0.0596527504	by as much as
0.0596523478	improvements compared to
0.0596519843	the root mean square
0.0596515918	value from
0.0596503575	b ^
0.0596483217	the unique
0.0596478778	main goal of
0.0596467476	the switch
0.0596443622	the expressive power of
0.0596429542	the conditional probabilities
0.0596428249	discuss various
0.0596347105	the number of items
0.0596328248	different initial
0.0596325734	a multitude of
0.0596288382	$ setting
0.0596253528	to practice
0.0596228075	a new feature
0.0596220437	the existence
0.0596165428	small but
0.0596160723	the high fidelity
0.0596114239	possible values
0.0596054321	$ r \
0.0596025110	the misclassification
0.0596020542	analyze two
0.0596003471	the primary goal
0.0595935560	i \ in \
0.0595900925	the sparsity pattern
0.0595894767	in order to scale
0.0595866708	an extreme
0.0595842174	so as to improve
0.0595837550	over multiple
0.0595810580	learned with
0.0595785066	these results demonstrate
0.0595768374	tends to improve
0.0595750327	the optimal set
0.0595737423	to new tasks
0.0595717475	the same classification
0.0595672546	the number of samples required
0.0595632927	the background
0.0595610495	also found
0.0595503371	\ kappa =
0.0595496027	these different
0.0595458351	a target model
0.0595436983	general enough
0.0595368171	a recommender
0.0595357030	services such as
0.0595349845	the proposed policy
0.0595327602	a ratio
0.0595282037	little theoretical
0.0595264175	the voxel
0.0595260768	in terms
0.0595249109	by running
0.0595208619	the geographical
0.0595198697	a loss
0.0595175788	the natural
0.0595134279	of tumors
0.0595119808	a fraction
0.0595112836	even with
0.0595079513	different from existing
0.0595043674	organized in
0.0595041473	the proposed objective
0.0594961809	the main advantage
0.0594942921	of discrete choice
0.0594930998	parameterized as
0.0594891166	new objective
0.0594858650	a safe
0.0594832174	way to obtain
0.0594723850	by averaging
0.0594722245	some other
0.0594716288	performance depends on
0.0594713000	any function
0.0594678804	best approximation
0.0594623250	into distinct
0.0594600215	from raw data
0.0594595128	various applications
0.0594571691	demand at
0.0594547329	the minor
0.0594544162	the best single
0.0594543499	a population
0.0594514493	signal processing on
0.0594511583	estimates than
0.0594510395	induction of
0.0594497241	not captured
0.0594467131	an optimization algorithm
0.0594419156	and naturally
0.0594412666	an extensive simulation
0.0594381170	robust under
0.0594345011	the adjoint
0.0594338535	some key
0.0594320123	$ x \
0.0594306406	a few data
0.0594305218	a new sparse
0.0594262941	the extracted
0.0594246069	an effect
0.0594219687	a click
0.0594216170	studied by
0.0594215742	a framework for
0.0594177072	any individual
0.0594147996	a learning based
0.0594140976	algorithms in terms
0.0594125286	the timing
0.0594122915	put in
0.0594116465	the alignment
0.0594110297	then tested
0.0594105205	structure within
0.0594077303	the presented
0.0594073575	top 1 accuracy on
0.0594067154	the challenge of
0.0594042114	performance than other
0.0594033371	of hidden neurons
0.0594008584	a wide array
0.0593974614	$ fraction of
0.0593956874	a unified analysis
0.0593936895	approach in terms
0.0593933715	also consider
0.0593933715	also allows
0.0593926391	a recommendation
0.0593865622	and lower
0.0593783253	two essential
0.0593772622	non parametric model
0.0593750186	on simulated
0.0593704174	classification performance on
0.0593698437	directly used
0.0593694996	on unseen
0.0593687894	sampling algorithm for
0.0593681904	this unified
0.0593681401	a graph signal
0.0593530527	u net for
0.0593469547	the training algorithm
0.0593428434	this formula
0.0593367035	approximate inference for
0.0593360021	reproducibility of
0.0593353380	the st
0.0593325431	to audit
0.0593307101	the binary
0.0593307101	the communication
0.0593242516	well over
0.0593215045	image classification models
0.0593205246	the erm
0.0593180339	a different class
0.0593168212	the experimental
0.0593164668	bayesian inference in
0.0593162670	to batch
0.0593125947	both training
0.0593110581	these areas
0.0593106119	\ in r
0.0593095628	a bilinear
0.0593092173	priors such as
0.0593085785	from expert
0.0593025894	this interaction
0.0592994168	signatures of
0.0592986334	advocate for
0.0592976461	the discovered
0.0592962619	both input
0.0592955246	the ranked
0.0592871905	a contribution
0.0592869981	associated to
0.0592830713	also discover
0.0592802367	to solve complex
0.0592750194	also evaluate
0.0592731949	a large sample
0.0592699504	the question of
0.0592629567	also considered
0.0592555633	iterates of
0.0592523952	patterns among
0.0592511583	establish new
0.0592509293	kernel method for
0.0592505561	feature selection with
0.0592503232	two advantages
0.0592466700	the desired level
0.0592462300	situations with
0.0592453926	the typical
0.0592345726	no assumptions about
0.0592320697	a novel system
0.0592287175	new light on
0.0592242744	experiments on synthetic and
0.0592172668	in order to perform
0.0592121674	statistic for
0.0592115778	the population level
0.0592061889	regions with
0.0592030845	a high resolution
0.0592014523	these three
0.0592006315	the decision boundaries
0.0591976707	such as random forests
0.0591947913	x \ in \
0.0591943491	converges faster and
0.0591887571	the calibrated
0.0591883817	the progressive
0.0591882163	the same learning
0.0591854753	algorithm inspired by
0.0591815616	a learned model
0.0591747612	the retinal
0.0591742401	of particular interest
0.0591728054	various benchmarks
0.0591696794	two types
0.0591641657	to characterise
0.0591545693	but only
0.0591544835	the response
0.0591512232	way to improve
0.0591511755	to describe
0.0591481273	bayesian learning of
0.0591436598	key element of
0.0591293522	yet efficient
0.0591256772	the latter case
0.0591192078	novel semi supervised
0.0591170578	to learn interpretable
0.0591154616	a subset of nodes
0.0591153206	these previous
0.0591144413	some works
0.0591104785	arm at
0.0591028899	a radiologist
0.0591027855	regularity of
0.0590995946	a light
0.0590990642	a pure
0.0590942128	different data sets
0.0590926660	a step size
0.0590903474	based representation of
0.0590889831	an observable
0.0590836334	a slightly
0.0590800689	new research
0.0590781404	joint distributions of
0.0590722024	density estimation with
0.0590717985	to split
0.0590711204	prediction through
0.0590705246	the routing
0.0590704870	significantly over
0.0590697856	better use
0.0590692245	able to cope with
0.0590653915	the formula
0.0590649884	the practical
0.0590640329	and time to
0.0590608995	used to encode
0.0590603562	networks in terms
0.0590603439	available via
0.0590555633	cascade of
0.0590553165	a detailed theoretical
0.0590527086	\ sim \
0.0590521104	error compared to
0.0590488828	the same results
0.0590458778	near optimality of
0.0590439854	promising tool for
0.0590407511	a seminal
0.0590406954	even for
0.0590349504	the same number of
0.0590340980	a surface
0.0590277628	the third
0.0590255731	trained and tested on
0.0590239910	for computing
0.0590233774	a moderate
0.0590175949	n \ times m
0.0590148585	a difficult
0.0590122400	new state of
0.0590099747	representation based on
0.0590092815	a representation
0.0590084790	than 20
0.0590083612	the programming language
0.0590082196	this class
0.0590047766	to discriminate between
0.0590031560	investigate several
0.0590026023	contrast with
0.0590025423	feature selection from
0.0590014498	the regret
0.0589992488	rather than only
0.0589932009	different instances
0.0589888672	on two benchmarks
0.0589886444	with relatively small
0.0589827934	some users
0.0589821283	in order to enable
0.0589814507	several fields
0.0589680842	the symbol
0.0589659743	beginning to
0.0589631005	5 different
0.0589600620	both state
0.0589573538	on ten
0.0589566086	in computer vision
0.0589485980	bottleneck for
0.0589474074	the main advantage of
0.0589472508	the presented model
0.0589444294	the privacy budget
0.0589429332	a breakthrough
0.0589370362	and do not require
0.0589367505	the envelope
0.0589355090	two ideas
0.0589264255	some unique
0.0589230426	way to train
0.0589156073	to examine
0.0589132316	the ranking
0.0589131807	tendency to
0.0589110271	to take into account
0.0589048017	most previous
0.0588992427	ingredient in
0.0588965692	but sometimes
0.0588941875	the traditional
0.0588939867	the transformation
0.0588933750	the out of sample
0.0588910149	the said
0.0588895796	between two variables
0.0588806546	changes from
0.0588763129	these platforms
0.0588732846	lens of
0.0588709407	existing approaches for
0.0588612216	an ml
0.0588610305	the complexity
0.0588597620	the mean square error
0.0588574710	demonstrated on two
0.0588545680	\ ^
0.0588510405	several practical
0.0588494082	$ nearest
0.0588460696	several existing
0.0588443375	also obtain
0.0588436218	the exposure
0.0588303154	different numbers
0.0588289047	the second moment
0.0588252631	the computer vision
0.0588169782	instances from
0.0588166082	sub optimality of
0.0588158498	not previously
0.0588157240	price of
0.0588108215	bias of
0.0588018560	severity of
0.0587975615	two notions
0.0587974262	a new test
0.0587963290	a better understanding of
0.0587959765	the fast
0.0587947592	help to understand
0.0587936545	not significantly
0.0587854192	an overall accuracy
0.0587853026	often needs
0.0587836393	the quantized
0.0587815795	or better than
0.0587801400	for two layer
0.0587779292	several publicly
0.0587769895	benefits such as
0.0587690141	such approaches
0.0587650377	algorithms in terms of
0.0587633074	this problem by proposing
0.0587627328	several algorithms
0.0587547906	\ accuracy
0.0587540727	the i.i.d
0.0587538671	the definition
0.0587532885	a validation set
0.0587475495	such solutions
0.0587472892	to demonstrate
0.0587443912	do not change
0.0587407414	the model's prediction
0.0587405506	most appropriate
0.0587308856	new tool
0.0587297851	new policies
0.0587283645	a broad set of
0.0587271766	differentiable with respect to
0.0587267042	the presented approach
0.0587250531	3 different
0.0587200845	physiological time
0.0587196012	possible to identify
0.0587181943	series with
0.0587179246	the sub gaussian
0.0587167050	a minimax
0.0587128550	the task of classifying
0.0587125286	the constituent
0.0587072492	the dependency
0.0587054129	example on
0.0586950622	both simulation
0.0586950400	draw on
0.0586943076	also presents
0.0586906915	scales to
0.0586858632	formalized in
0.0586855974	a variety of learning
0.0586763895	to see
0.0586752246	the locality
0.0586745025	contents of
0.0586692888	hierarchies of
0.0586647331	exact inference in
0.0586620114	kernel regression with
0.0586536215	still not
0.0586531627	as inputs
0.0586481583	the integration
0.0586445581	the arm
0.0586439190	heterogeneity of
0.0586409738	the global solution
0.0586404590	very close to
0.0586395667	the orthogonal
0.0586345555	training algorithm for
0.0586314602	a simple and efficient
0.0586294406	the high resolution
0.0586284088	a much smaller
0.0586250231	with theoretical guarantees
0.0586201743	a given image
0.0586175820	a completely
0.0586164077	first prove
0.0586037224	all k
0.0586035841	two categories
0.0586016680	of candidate
0.0585992286	the offline
0.0585960650	acquisition functions for
0.0585853915	the stability of
0.0585848850	via adaptive
0.0585789152	any state
0.0585778822	effective than
0.0585777022	the hyper
0.0585767428	3d medical
0.0585757361	a patch
0.0585689827	the momentum
0.0585685202	the convolution
0.0585656332	the support set
0.0585654926	the separation
0.0585654017	the weight matrices
0.0585643913	benchmarks for
0.0585632068	a stream
0.0585504519	many benefits
0.0585390189	the return
0.0585323763	good approximation
0.0585303334	a re
0.0585214425	a specified
0.0585204919	in theory and in practice
0.0585204087	to play
0.0585182862	run to
0.0585169340	3 \ varepsilon
0.0585148585	a sufficient
0.0585136634	mitigation of
0.0585136555	to decrease
0.0585125774	pre training of
0.0585113972	new variants
0.0585080430	sparseness of
0.0585015473	between users
0.0584994430	in terms of efficiency
0.0584952349	the size
0.0584920858	a video
0.0584910608	the demonstrator
0.0584887599	the spike
0.0584883253	each factor
0.0584830780	this perspective
0.0584790799	the link
0.0584777248	new bounds
0.0584739501	law of
0.0584714305	features like
0.0584712991	of distribution detection
0.0584697341	prediction error of
0.0584677198	appear in
0.0584642715	as compared
0.0584625444	corresponding labels
0.0584606154	just by
0.0584591396	a measure of
0.0584569752	the problem domain
0.0584551724	the optimal parameter
0.0584524252	the real environment
0.0584523811	recognition with
0.0584508669	directly without
0.0584468118	perspective of
0.0584427640	all parts
0.0584427434	a challenge
0.0584408182	both sparse
0.0584407774	the double
0.0584407774	the mass
0.0584397840	more strongly
0.0584385172	violated in
0.0584346944	a system
0.0584345302	coordinate descent for
0.0584332425	for deciding
0.0584297470	scalable way
0.0584296077	a novel data
0.0584265232	sampled with
0.0584263773	setting without
0.0584260002	by avoiding
0.0584243831	the standard deviation
0.0584195335	with arbitrary
0.0584195145	approach against
0.0584155842	only partial
0.0584145621	scores for
0.0584142738	guarantees against
0.0584141118	a heuristic method
0.0584121973	a compromise
0.0584059268	also gives
0.0584058186	iteration complexity of
0.0584055218	the use of gaussian
0.0584045888	but more
0.0584008726	consistency under
0.0583986753	in certain settings
0.0583967172	either on
0.0583957725	the privacy
0.0583950420	kind of data
0.0583931998	efficiency than
0.0583915239	the initial point
0.0583876146	reconstructions of
0.0583824569	the training of
0.0583799389	overfitting in
0.0583783253	not needed
0.0583734157	robust across
0.0583685932	a mismatch
0.0583664764	to unify
0.0583580593	the power
0.0583553287	the problem of model selection
0.0583548999	end to end with
0.0583545089	for training deep
0.0583533020	other groups
0.0583532735	$ mixing
0.0583499389	multiple sub
0.0583472636	in order to increase
0.0583433526	not true
0.0583429332	a mistake
0.0583424642	the multi layer
0.0583396299	the consequent
0.0583363549	order to allow
0.0583345412	the art generative
0.0583275367	all subjects
0.0583243270	does not contain
0.0583219558	a given class
0.0583175648	the answer
0.0583173623	this dataset
0.0583156285	robustness under
0.0583152238	on synthetic
0.0583137998	bias than
0.0583112786	specialized to
0.0583081981	the vocal
0.0582989857	basis of
0.0582979044	with non uniform
0.0582951854	to continue
0.0582902442	queries with
0.0582868544	convex relaxation of
0.0582827228	across four
0.0582772918	an ergodic
0.0582750699	other types
0.0582734381	substitute for
0.0582717429	or infinite
0.0582689838	two sets of
0.0582679985	assumption for
0.0582531601	a random graph
0.0582489446	the gradient of
0.0582459281	all data
0.0582453635	the fraction
0.0582434520	system without
0.0582426496	most relevant features
0.0582414175	the deformation
0.0582390230	the amount of data
0.0582383001	several settings
0.0582371913	and systematically
0.0582350630	better than random
0.0582283955	the initial weights
0.0582246763	for example in
0.0582215083	at prediction time
0.0582073667	perplexity of
0.0582049973	do not fully
0.0582040697	most works
0.0582029404	suffer from two
0.0581958453	a subset of features
0.0581949492	the end to end
0.0581926057	computed at
0.0581876056	the conjecture
0.0581854479	possible to construct
0.0581807841	applicability in
0.0581761271	method gives
0.0581746184	not only reduces
0.0581730804	these noisy
0.0581721338	geometric mean of
0.0581706591	even further
0.0581699529	the inconsistency
0.0581685932	the usability
0.0581662175	the aggregated
0.0581641919	regularization term in
0.0581639476	many kinds
0.0581638783	a novel network
0.0581637088	but also achieves
0.0581589196	programs with
0.0581579237	than classical
0.0581503186	some connections
0.0581427852	the classification process
0.0581402210	then used
0.0581397013	an original
0.0581363536	the tremendous
0.0581351985	methods for time series
0.0581334554	practical approach to
0.0581320314	useful in
0.0581188928	a new observation
0.0581160723	the low resolution
0.0581147837	in one dimension
0.0581136419	the wireless
0.0581103574	distillation for
0.0581058025	an efficient way
0.0581035056	costly and
0.0580975126	get better
0.0580886686	of over fitting
0.0580862314	does not scale
0.0580861351	the context of neural
0.0580774665	the set
0.0580762914	$ c \
0.0580749743	such models
0.0580701160	cause of
0.0580660173	as accurately
0.0580656104	these two tasks
0.0580648316	the main contribution of
0.0580576694	from overfitting
0.0580569849	scores than
0.0580547386	learning policies for
0.0580522311	to indicate
0.0580467229	the homotopy
0.0580450350	by looking
0.0580444816	such problems
0.0580422157	on two challenging
0.0580416677	very computationally
0.0580394985	a serious
0.0580347563	and empirically
0.0580336731	the surprising
0.0580328858	both multi
0.0580310009	locally at
0.0580293066	the standard setting
0.0580280897	neuron with
0.0580200155	the reported
0.0580188358	the squared error
0.0580183959	algorithms designed for
0.0580135087	asymptotic performance of
0.0580061542	layers into
0.0580014498	the ensemble
0.0579974638	a useful
0.0579922067	one layer at
0.0579903745	neighborhood of
0.0579878779	a training set
0.0579864517	both clean
0.0579851445	proteins with
0.0579843375	results than
0.0579812035	a variance
0.0579795873	key challenges in
0.0579790280	the composite
0.0579706059	the fitness
0.0579706059	the grammar
0.0579684057	a sufficient number of
0.0579670348	also implement
0.0579662670	to condition
0.0579654340	the robustness of classifiers
0.0579627200	about users
0.0579575129	a common space
0.0579551087	more robust against
0.0579534178	a new information
0.0579515907	demands of
0.0579512336	sets indicate
0.0579479921	best baseline
0.0579452569	various data sets
0.0579396200	a novel semi supervised
0.0579384812	on recovering
0.0579366258	this extended
0.0579363657	any convex
0.0579356159	problem by
0.0579331531	$ s_0 \
0.0579315600	also improves
0.0579273670	used to assess
0.0579251164	the top performing
0.0579225491	little to
0.0579158559	the monotonicity
0.0579125981	the following contributions
0.0579016710	a typical example
0.0579008453	while enabling
0.0578997793	of over parameterized
0.0578993266	accuracy as compared to
0.0578988938	inability of
0.0578943307	a growing
0.0578918474	concern of
0.0578848110	these two properties
0.0578819445	powerful method for
0.0578809641	optimal control of
0.0578765101	a reconstruction
0.0578754926	the geometry
0.0578741884	the quality
0.0578715973	the constraint set
0.0578672711	these filters
0.0578660411	against various
0.0578631288	each distribution
0.0578627210	such as user
0.0578603003	in biology
0.0578596536	a large number of labeled
0.0578591483	classification problem as
0.0578534840	lead to more
0.0578524443	a margin based
0.0578481064	the wider
0.0578431582	= x \
0.0578358134	this design
0.0578330187	a clean
0.0578328241	a predictive
0.0578310408	far from optimal
0.0578301589	the bag
0.0578290411	give two
0.0578255895	to reveal
0.0578246208	methods mainly focus on
0.0578185427	noisy measurements of
0.0578138510	and also provide
0.0578119792	provides useful
0.0578094638	\ delta \
0.0578094548	as well as real world data
0.0578085584	with limited computational
0.0578084171	much lower than
0.0578057291	for finding
0.0578035064	the trial
0.0577997010	for training neural
0.0577955773	to overfit
0.0577920138	the healthcare domain
0.0577905842	also demonstrates
0.0577904649	exactly in
0.0577898992	only learn
0.0577873179	the time series data
0.0577871905	a lack
0.0577850398	still possible
0.0577847908	an optimizer
0.0577777498	in tandem
0.0577773702	the web
0.0577762649	contain more
0.0577744065	embeddings with
0.0577741493	the unconstrained
0.0577651838	the rapid
0.0577638666	reconstruction with
0.0577590255	the activation
0.0577551605	a certain class
0.0577483182	the reconstructed
0.0577435509	two benchmark datasets
0.0577418579	the emergence
0.0577417350	increasing use of
0.0577381164	the building
0.0577373907	processed in
0.0577371194	framework via
0.0577365066	many iterations
0.0577358707	the feature learning
0.0577332723	handle more
0.0577320471	+ n \
0.0577314760	to complement
0.0577268290	a scaled
0.0577206377	a numerical
0.0577177083	the addition
0.0577158209	the wake
0.0577116675	a maze
0.0577090935	basis for
0.0577030023	new definition
0.0577015473	given observations
0.0577014175	the parent
0.0576919083	used to model
0.0576914262	point estimates of
0.0576847484	the dissimilarity
0.0576777974	the qualitative
0.0576733659	a feature extraction
0.0576715195	first train
0.0576715027	a healthy
0.0576650044	and also
0.0576633179	learn representations of
0.0576616349	variants such as
0.0576615564	relatively well
0.0576615107	the same approach
0.0576581831	filtering with
0.0576571162	average of
0.0576571162	step in
0.0576534232	sentiment analysis of
0.0576508981	the runtime
0.0576381352	detected in
0.0576370571	results give
0.0576352131	models such as
0.0576349195	the well studied
0.0576323449	provides better
0.0576297110	make good
0.0576295217	in order to determine
0.0576254926	the direction
0.0576250079	matrix from
0.0576246581	for out of sample
0.0576242354	each signal
0.0576234393	a new notion
0.0576197226	to come
0.0576169066	from observed data
0.0576099048	data set to
0.0576092010	the degree of
0.0576084879	the generalized
0.0576060159	ones with
0.0576026696	to aggregate
0.0575992896	to collapse
0.0575989136	irrelevant to
0.0575982697	the attribute
0.0575965497	learning problem in
0.0575960600	performed to
0.0575951800	variability of
0.0575948647	theoretically possible
0.0575853915	the geometry of
0.0575838718	while optimizing
0.0575837982	the marginal distribution
0.0575832608	an importance
0.0575810937	less computational
0.0575809970	a series
0.0575802210	particularly with
0.0575799751	chance of
0.0575791148	follow from
0.0575770742	descent with
0.0575767698	the proposed inference
0.0575765623	the approximate posterior
0.0575750254	obstacle for
0.0575739926	by specifying
0.0575733169	m = \
0.0575732846	the non smooth
0.0575710163	a proof of principle
0.0575640419	a new model based
0.0575638628	suffers from two
0.0575633570	often collected
0.0575614893	knowledge across
0.0575597254	the false discovery
0.0575575697	the data based
0.0575571556	the non negative
0.0575536529	good properties
0.0575472971	the predictive performance of
0.0575438556	close by
0.0575395946	the affected
0.0575388791	by attacking
0.0575361912	theme in
0.0575344518	existing works on
0.0575335166	than state of
0.0575282537	the causal direction
0.0575281660	a false
0.0575256197	model on synthetic
0.0575255873	a major problem
0.0575225659	attraction of
0.0575223359	the bootstrap
0.0575120699	analyses on
0.0575109765	a language model
0.0575072172	off between
0.0575043369	the degradation
0.0575037240	accuracy compared with
0.0575024982	the efficiency
0.0575013957	known in
0.0575009065	a concept drift
0.0574918470	the flexibility
0.0574906175	very recent
0.0574894631	healthy and
0.0574885877	reduced from
0.0574879751	work provides
0.0574826092	or equal
0.0574789238	loss compared to
0.0574785703	a successful
0.0574765303	the achievable
0.0574744608	the correct number
0.0574710608	such as dropout
0.0574709620	corresponding class
0.0574677888	2 wasserstein
0.0574673888	the proof
0.0574660834	growth in
0.0574641139	a multi view
0.0574634400	on two public datasets
0.0574629072	present results of
0.0574617508	lead to good
0.0574611973	although several
0.0574596637	a limited
0.0574591396	the domain of
0.0574588680	test error on
0.0574537751	the proposed graph
0.0574537260	to sample
0.0574522780	available data
0.0574505773	and then propose
0.0574385405	both global
0.0574372721	global optimization of
0.0574370404	the specified
0.0574285513	the mean square
0.0574263351	novel data driven
0.0574231618	a stream of
0.0574174196	shown to work
0.0574125339	to cluster
0.0574070157	sample complexity for
0.0574008769	this collection
0.0573995456	with rejection
0.0573985354	best arm identification in
0.0573933994	speed of
0.0573919564	from multiple
0.0573889527	outliers in
0.0573843361	an update
0.0573837976	the shape
0.0573807316	on four
0.0573768548	power at
0.0573765359	than just
0.0573747139	second part
0.0573670204	learnability in
0.0573669093	a standardized
0.0573647386	a coherent
0.0573630615	an activation
0.0573502571	also extended
0.0573458619	the acceptance
0.0573458127	new techniques
0.0573440711	shows good
0.0573420514	for generating
0.0573415224	from slow convergence
0.0573404723	inductive bias in
0.0573388320	or gender
0.0573346623	a popular method for
0.0573310930	underlying distribution of
0.0573281490	under appropriate
0.0573278977	a fleet
0.0573265062	data set with
0.0573241146	the widespread
0.0573196446	relationships between different
0.0573190157	a planted
0.0573163602	the full dataset
0.0573145811	the causal
0.0573145811	the density
0.0573145811	the object
0.0573112786	status of
0.0573063678	the reliance
0.0573041665	solver for
0.0573034171	the cox
0.0573032772	the pre training
0.0573023918	on two
0.0572966585	speakers in
0.0572958991	to unseen domains
0.0572931752	real time on
0.0572920849	a given node
0.0572909970	a soft
0.0572896927	empirical analysis on
0.0572808765	to collaborate
0.0572794593	an eigenvalue
0.0572650120	functional form of
0.0572628000	method combined with
0.0572613454	applications across
0.0572549430	cells in
0.0572506537	any statistical
0.0572492606	the acceleration
0.0572490395	emotions in
0.0572407240	entries from
0.0572403737	a job
0.0572354138	studied for
0.0572326090	four state of
0.0572297460	the superiority
0.0572251135	models for data
0.0572204414	features via
0.0572203192	a desired accuracy
0.0572084755	able to accurately
0.0572038833	to compete
0.0572011295	the studied
0.0572007808	thus significantly
0.0571994576	compositional structure of
0.0571982371	for non experts
0.0571930433	problem arises in
0.0571927617	a log likelihood
0.0571923065	the relative merits
0.0571850337	and publicly
0.0571846399	predictive performance of
0.0571842732	the acquisition function
0.0571782871	often perform
0.0571775844	for one bit
0.0571746895	efficiently use
0.0571708615	a unimodal
0.0571706724	of time to event
0.0571666619	satisfaction of
0.0571641157	the derivation
0.0571611856	extensive use of
0.0571609770	error analysis for
0.0571556417	against other
0.0571473577	found many applications in
0.0571439881	an enormous amount of
0.0571344171	time via
0.0571298315	many approaches
0.0571266171	the introduction of
0.0571257959	a variant
0.0571228803	the required number
0.0571223164	an expression
0.0571178811	modeling with
0.0571099565	a novel kernel
0.0571077726	the target data
0.0571004690	the number of required
0.0570920713	better results
0.0570915530	a synthetic
0.0570909545	the propensity
0.0570908918	a novel class
0.0570804238	the concave
0.0570736153	the algorithm converges
0.0570706324	all clusters
0.0570698389	the leave one out
0.0570679676	discrimination in
0.0570675877	often performed
0.0570643754	the auto
0.0570626145	new loss
0.0570608542	the recent
0.0570593058	a language
0.0570526901	the singular
0.0570514201	essential part of
0.0570506452	much as
0.0570413351	prohibitive for
0.0570400143	a gating
0.0570399804	or near
0.0570392602	and weakly
0.0570353778	the treatment effect
0.0570297110	better overall
0.0570238107	each time
0.0570190913	a higher order
0.0570163805	recovery with
0.0570144843	minimax optimal in
0.0570134465	particularly in
0.0570093858	done in
0.0570062380	the model accuracy
0.0570029585	expansion for
0.0570014264	not shared
0.0569999923	different objects
0.0569997808	a fully unsupervised
0.0569978261	very sensitive
0.0569952992	a stratified
0.0569904062	such as recommendation
0.0569894509	run for
0.0569887191	a parametrization
0.0569875474	disentanglement of
0.0569859485	vertices in
0.0569821698	a notion
0.0569788498	system called
0.0569764982	the full gradient
0.0569733115	high performance in
0.0569723487	these neural networks
0.0569707230	the targeted
0.0569669186	any such
0.0569638425	link prediction on
0.0569606501	a null
0.0569600337	and randomly
0.0569524606	general case of
0.0569514341	such as social
0.0569508721	comes in
0.0569498799	across three
0.0569482097	the non zero
0.0569469817	an expected
0.0569465816	many users
0.0569451166	also makes
0.0569444448	usually not
0.0569429316	compared to other state
0.0569347073	not require prior
0.0569320363	several baseline
0.0569316848	a block coordinate
0.0569304590	both approaches
0.0569286757	many existing
0.0569232781	mechanism into
0.0569215539	2 \ leq
0.0569203779	the discounted
0.0569180947	simulator for
0.0569168743	on standard benchmark
0.0569160568	the vehicle
0.0569157238	to achieve faster
0.0569155779	potential applications of
0.0569119837	reduction via
0.0569115010	teacher models
0.0569098325	$ 50 \
0.0569086752	resources such as
0.0569073212	3d models
0.0569056072	the detectability
0.0569044416	a relatively small
0.0569003251	of increasing complexity
0.0568999134	a dynamical systems
0.0568959662	against standard
0.0568955311	a relaxed
0.0568934706	research area in
0.0568931086	a common set of
0.0568839974	the opportunity
0.0568839334	in order to construct
0.0568802279	an auc of
0.0568781939	still suffer from
0.0568742545	a refined
0.0568729779	this decomposition
0.0568709590	by inferring
0.0568703037	the problem of online
0.0568697534	the mnist
0.0568686400	the compositional
0.0568684233	the evaluation
0.0568678712	and mnist datasets
0.0568617350	the trigger
0.0568597302	both feature
0.0568590538	in terms of predictive performance
0.0568585068	a negligible
0.0568584148	domain adaptation on
0.0568577339	co adaptation of
0.0568568585	several domains
0.0568470273	a slice
0.0568440736	the detailed
0.0568415530	the efficacy
0.0568402660	the fundamental
0.0568400399	not at
0.0568353840	defined with
0.0568307101	the semantic
0.0568265122	ranking from
0.0568235264	approaches like
0.0568230398	to learn faster
0.0568178397	more specific
0.0568175522	the application
0.0568174745	adaptivity in
0.0568163335	novel approach called
0.0568155579	further illustrate
0.0568153513	new data points
0.0568141515	need to perform
0.0568104113	comprehensive set of
0.0568101049	situation of
0.0568094106	some useful
0.0568080951	one unit
0.0568058038	helps in
0.0567989481	competitive performance of
0.0567929917	the amortized
0.0567929917	the organization
0.0567903955	perform inference in
0.0567900020	more recently
0.0567883663	the edge of chaos
0.0567867146	next to
0.0567825617	attention from
0.0567816153	able to improve
0.0567799332	the strategic
0.0567730033	such procedures
0.0567729944	derive two
0.0567620003	fast rate of
0.0567618630	some assumptions
0.0567605968	each mode
0.0567597026	the feasibility
0.0567582196	a computationally
0.0567559133	the collaborative filtering
0.0567520574	the intra
0.0567510575	the problem of causal
0.0567507238	among various
0.0567472053	upon previous
0.0567446903	all other methods
0.0567435868	into several
0.0567411951	a significant advantage
0.0567410363	of out of distribution
0.0567334679	a numerically
0.0567330288	the memory requirement
0.0567298930	to correct
0.0567225315	the prediction model
0.0567218146	the corpus
0.0567177083	the generating
0.0567128282	the problem of building
0.0567083442	engine for
0.0567078807	a sparse gaussian
0.0567074178	a renewed
0.0567070902	a cumbersome
0.0567051130	a particular focus
0.0567047158	benchmarks such as
0.0567027152	the special case
0.0566983400	different regions
0.0566974074	a key role in
0.0566935666	ability to learn from
0.0566928640	an evolving
0.0566917615	this methodology
0.0566902049	as well as several
0.0566853761	such as finance
0.0566845720	the logarithmic
0.0566780463	case study of
0.0566764550	the boundary
0.0566763178	the cascade
0.0566758081	labeled data from
0.0566744613	a dl
0.0566744171	the policy space
0.0566730688	the minimax lower
0.0566712177	for time series forecasting
0.0566708125	structures among
0.0566656961	to further boost
0.0566628048	the governing
0.0566619350	most cases
0.0566592691	each graph
0.0566561835	an out of sample
0.0566533354	other applications
0.0566517585	non stationary time
0.0566514579	evidence from
0.0566513577	in order to compute
0.0566474056	\ mathbb r ^ d \
0.0566422817	then demonstrate
0.0566402823	$ k ^
0.0566377530	a notable
0.0566307743	via extensive experiments
0.0566303218	more stable than
0.0566245266	the generated data
0.0566208739	the vicinity
0.0566166318	by orders of magnitude
0.0566156604	death in
0.0566121973	this failure
0.0566106087	ways of
0.0566102094	for characterizing
0.0566080365	particular tasks
0.0566054521	even within
0.0566043041	the social
0.0566028463	a maximum likelihood
0.0566020716	classification problem with
0.0566019334	a sphere
0.0565997399	a variety of fields
0.0565986266	loss functions such as
0.0565960844	a physically
0.0565917009	last few
0.0565915719	$ \ mathbb e \
0.0565896503	accuracy within
0.0565877682	optimal among
0.0565876369	the square root of
0.0565855712	the first algorithm
0.0565767854	possible through
0.0565759227	this experiment
0.0565753113	approach compared to
0.0565732797	data with missing
0.0565711629	a competitive
0.0565705246	the color
0.0565665932	used during
0.0565634758	topics from
0.0565568876	from zero
0.0565503371	\ mapsto \
0.0565443014	the most significant
0.0565441824	unique to
0.0565401278	possible way
0.0565370446	$ accuracy
0.0565365999	a benchmarking
0.0565362873	the missing data
0.0565353067	the external
0.0565347687	results compared to
0.0565325034	performance in many
0.0565309790	study provides
0.0565270240	reported for
0.0565242619	some time
0.0565192394	other classifiers
0.0565163427	first uses
0.0565086222	image into
0.0564976793	some additional
0.0564964260	the trainable
0.0564952349	the similarity
0.0564921859	the recursive
0.0564891166	new points
0.0564855412	on real and synthetic data
0.0564809788	available under
0.0564740793	the form
0.0564690155	calculated with
0.0564682593	study aims to
0.0564585549	amount of labeled
0.0564531733	often produce
0.0564528041	least as good as
0.0564491430	the expressive power
0.0564487682	novel multi task
0.0564481635	a two class
0.0564477691	this limit
0.0564460986	then introduce
0.0564435242	most modern
0.0564376375	the long
0.0564335206	a better solution
0.0564283094	producing more
0.0564265785	the operational
0.0564249860	a multi label
0.0564220142	turn to
0.0564212099	a new inference
0.0564201316	provides higher
0.0564100692	need to train
0.0564096539	the virtual
0.0564068920	method outperforms several
0.0564067154	the issue of
0.0564052068	the art multi
0.0564014259	both quantitative and qualitative
0.0564008004	success rate of
0.0563970407	representations via
0.0563918317	other variants
0.0563900263	some numerical
0.0563894222	the projection matrix
0.0563836327	demonstrations from
0.0563824661	study focuses on
0.0563789460	another approach
0.0563748601	to guarantee
0.0563726993	require more
0.0563714693	sacrifice in
0.0563705636	a domain specific
0.0563699529	the injection
0.0563686400	the truncated
0.0563686165	also study
0.0563658366	step size in
0.0563649421	the proxy
0.0563648486	and policy based
0.0563632508	often outperform
0.0563599096	made at
0.0563597186	each prediction
0.0563580593	the quantum
0.0563543041	the optimized
0.0563534854	errors at
0.0563520453	going to
0.0563520209	leveraged for
0.0563455935	prevention of
0.0563441224	findings from
0.0563438739	many other
0.0563421932	second algorithm
0.0563382782	methods on real
0.0563337465	the two dimensional
0.0563336393	the chemical
0.0563334385	year of
0.0563309776	a population based
0.0563307101	a parameter
0.0563268536	prediction accuracy of
0.0563247145	both shallow and deep
0.0563239002	by updating
0.0563207374	the diagnosis
0.0563168665	improved by using
0.0563158063	the flexibility of
0.0563145811	the action
0.0563116303	analog of
0.0563110803	to better capture
0.0563109693	similar accuracy to
0.0563088912	tradeoffs in
0.0563039761	in \ cite
0.0562947261	challenge of
0.0562928082	the tradeoff between
0.0562912590	this divergence
0.0562910422	five real
0.0562908967	test accuracy of
0.0562890276	direction of
0.0562870136	studied problem in
0.0562818179	the group level
0.0562798475	the exploration
0.0562797907	autoencoders with
0.0562793158	by explicitly
0.0562786392	$ reduction
0.0562751120	to introduce
0.0562749309	statistical inference on
0.0562714625	marginals of
0.0562677600	a copula
0.0562596309	a set of data
0.0562559169	$ data points
0.0562553390	a multimodal
0.0562547329	the profit
0.0562482697	the analytical
0.0562461009	extremes of
0.0562430998	manually by
0.0562413814	the machinery
0.0562393703	topics in
0.0562379221	show through
0.0562353157	months of
0.0562292996	better approximate
0.0562237132	used by
0.0562206565	novel unsupervised
0.0562206091	trend in
0.0562175262	the emergence of
0.0562096283	the extra
0.0562011812	sense of
0.0561993744	into four
0.0561992182	summation of
0.0561955378	the hypersphere
0.0561880683	both real world
0.0561805218	as well as training
0.0561780625	a decision making
0.0561778868	at least two
0.0561777496	the student's
0.0561769285	the network depth
0.0561761678	used to map
0.0561761425	three scenarios
0.0561723547	in depth analysis of
0.0561699615	different base
0.0561662591	the aggregate
0.0561662591	the delay
0.0561652511	need to learn
0.0561630455	approaches zero
0.0561627261	a novel gradient
0.0561603846	for time dependent
0.0561556498	this tradeoff
0.0561543249	the current model
0.0561522557	the slate
0.0561503327	given input
0.0561479742	in reality
0.0561453323	an anomalous
0.0561425719	a cycle
0.0561396962	the error of
0.0561372807	a hypergraph
0.0561348168	for graph classification
0.0561325431	to convey
0.0561320027	the intended
0.0561305576	three benchmark
0.0561227588	cases such as
0.0561203525	core of
0.0561168867	the log likelihood of
0.0561132988	many other applications
0.0561131827	a single dataset
0.0561089196	transformation from
0.0561081834	also perform
0.0560946153	the suggested method
0.0560945854	the support
0.0560895693	map from
0.0560852279	a critical role in
0.0560827397	performances in
0.0560818796	a rough
0.0560816671	to establish
0.0560773698	all linear
0.0560717724	only provides
0.0560705246	the l2
0.0560656164	motivated by applications in
0.0560615972	the reaction
0.0560611928	energy efficiency of
0.0560592433	several tasks
0.0560554161	a non zero
0.0560518960	architectures for
0.0560508557	all variables
0.0560508078	dataset without
0.0560369236	much interest
0.0560349210	one example
0.0560334094	a distinction
0.0560312916	the masked
0.0560271236	often at
0.0560228357	and frequently
0.0560226080	not usually
0.0560204823	regression using
0.0560166387	and blei
0.0560166274	two techniques
0.0560154742	the convex setting
0.0560102885	the linearized
0.0560092036	a member
0.0560077397	the most recent
0.0560061542	instances into
0.0560058448	this low rank
0.0560025523	sensitivity analysis of
0.0559983088	computer interaction
0.0559977261	the same training
0.0559975872	the timit
0.0559974990	a decent
0.0559966041	the edge weights
0.0559888510	novel approaches
0.0559841962	individual time
0.0559823626	regret under
0.0559794728	due to lack
0.0559787682	a strong correlation
0.0559764749	combine several
0.0559714994	makes full
0.0559711652	the number of objects
0.0559707110	to emerge
0.0559698284	memorization in
0.0559662643	confidence bounds for
0.0559633351	\ in
0.0559623627	a planar
0.0559612310	to accept
0.0559603425	a python library for
0.0559520865	a growing number of
0.0559511072	much information
0.0559506988	the naive approach
0.0559502103	many instances
0.0559494083	the proposed techniques
0.0559475238	node representations for
0.0559463091	on two large scale
0.0559463015	the rich
0.0559458420	a low level
0.0559440549	this success
0.0559388397	networks with different
0.0559387571	the straightforward
0.0559386992	transfer learning from
0.0559312450	but often
0.0559279621	the classical approach
0.0559252448	2 diabetes
0.0559196252	correction for
0.0559158258	the sparse coding
0.0559116458	various approaches
0.0559106194	a very large number of
0.0559085154	then present
0.0559080666	the interpolation
0.0559033927	fail to generalize to
0.0559011917	the truth
0.0559002643	a non gaussian
0.0558989124	such as clinical
0.0558988286	paradigms for
0.0558968271	the forecast
0.0558965091	essential role in
0.0558868660	on real world and synthetic
0.0558783088	treated with
0.0558766079	often observed
0.0558758860	the early stage
0.0558741884	the dimensionality
0.0558741884	the reconstruction
0.0558672711	these costs
0.0558642827	explosion of
0.0558627377	main contribution of
0.0558541270	nodes at
0.0558532579	also helps
0.0558493164	using tools
0.0558486101	to adopt
0.0558430061	comprehension of
0.0558411000	the swarm
0.0558353915	the solution of
0.0558344916	approximation allows
0.0558310580	question of
0.0558286104	for deploying
0.0558274592	reasonable to
0.0558257823	level features from
0.0558256413	time efficient
0.0558212212	the holdout
0.0558204527	problem within
0.0558193174	a technique
0.0558119792	useful if
0.0558084732	$ space
0.0558082055	then show
0.0558038954	found with
0.0558036028	any domain
0.0558034158	complexities of
0.0558014991	weight matrices of
0.0557955849	ensemble of models
0.0557930756	the gene expression
0.0557889356	driven framework for
0.0557875496	boundaries of
0.0557823929	an instrumental
0.0557803334	a side
0.0557794126	sparse signals with
0.0557705035	tested on several
0.0557695712	to showcase
0.0557678087	make strong
0.0557665218	various measures
0.0557658969	conclusions on
0.0557634303	data from different
0.0557633503	also possible
0.0557601446	one important
0.0557590255	a cluster
0.0557582448	\ leq p \
0.0557547158	but computationally
0.0557542320	networks via
0.0557518946	a popular tool for
0.0557432964	a top
0.0557412425	in many data
0.0557410490	representation learning on
0.0557409667	challenging yet
0.0557404897	such as gaussian
0.0557400607	game with
0.0557377387	the practicality
0.0557371194	results across
0.0557335069	an f1
0.0557327358	the art performance in terms of
0.0557298930	to complete
0.0557283186	different solutions
0.0557222707	not very
0.0557220508	a class of nonconvex
0.0557215100	other competitive
0.0557162156	or implicitly
0.0557124026	top 1 and
0.0557084545	the restricted
0.0557057934	powerful models for
0.0557045558	$ 2 \
0.0557043074	layers with
0.0556960605	further progress
0.0556876859	this behavior
0.0556861347	a great
0.0556852470	a new convex
0.0556848963	a novel neural
0.0556814316	between instances
0.0556789279	most accurate
0.0556752246	the pde
0.0556718269	a methodological
0.0556711267	place of
0.0556698028	time per
0.0556692888	orientation of
0.0556684169	some standard
0.0556626500	the matrix completion
0.0556621905	the operation
0.0556610567	the precision matrices
0.0556569833	domain adaptation for
0.0556565904	vary in
0.0556554140	this so called
0.0556536973	appropriate choice
0.0556534823	also supports
0.0556532836	three novel
0.0556494530	non parametric method
0.0556407459	the benefits
0.0556367558	metric based on
0.0556358301	the full data
0.0556337439	the length of
0.0556332425	a replacement
0.0556324569	the risk of
0.0556302320	a novel adversarial
0.0556292941	the model uncertainty
0.0556220061	cheap and
0.0556114388	$ s \
0.0556038858	no significant
0.0556028330	this choice
0.0555997188	regularization based on
0.0555988466	this finding
0.0555977604	particular case
0.0555963842	a mixed
0.0555959763	also generalize
0.0555957196	matrices with
0.0555941030	for click through rate
0.0555896874	also called
0.0555881207	proceeds in
0.0555813061	complexities for
0.0555789288	an identification
0.0555754957	$ wasserstein
0.0555719621	the robustness of dnns
0.0555701080	all inputs
0.0555699970	by demonstrating
0.0555690480	only after
0.0555658962	if so
0.0555613890	error bounds on
0.0555600742	a driver
0.0555584960	the singular value decomposition
0.0555551814	variational approximation to
0.0555533887	those features
0.0555489565	many useful
0.0555475239	the mean absolute error
0.0555445740	a necessary condition
0.0555434025	used as additional
0.0555432774	size per
0.0555349535	an important aspect of
0.0555298700	mean values
0.0555281736	the feature extraction
0.0555274064	the mutual information between
0.0555232781	bias into
0.0555203323	an uncertain
0.0555168715	more directly
0.0555152325	than 10
0.0555137073	a secure
0.0555038345	first provide
0.0555006902	often very
0.0555006485	penalty for
0.0555005151	a given sample
0.0554998435	novel multi view
0.0554988502	axioms of
0.0554979152	python library for
0.0554972036	variety of methods
0.0554953752	new architecture
0.0554939195	a city
0.0554911218	to lie
0.0554904800	feature interactions in
0.0554868587	different mechanisms
0.0554840189	$ \ | x
0.0554836771	first layer
0.0554836225	the open source
0.0554822553	raised in
0.0554782919	this range
0.0554736959	no model
0.0554736395	the scope
0.0554690325	method on several
0.0554658765	a rising
0.0554658556	problematic as
0.0554655546	comparison to other
0.0554623568	to vary
0.0554572296	even in
0.0554556018	important tasks in
0.0554546075	models like
0.0554544702	the network topology
0.0554519563	the integrated
0.0554512705	to object
0.0554502228	and always
0.0554445523	point at
0.0554403849	but due to
0.0554359265	each single
0.0554213377	a trusted
0.0554130438	other commonly used
0.0554117373	a given target
0.0554116720	a large range of
0.0554105358	the variance reduction
0.0554099109	by interpolating
0.0554091942	the lattice
0.0554063599	captured with
0.0554061079	an alternating direction
0.0554016428	order to deal with
0.0553988653	accuracy with
0.0553977996	^ m \
0.0553947883	best classifier
0.0553938319	intensity of
0.0553926017	a novel learning
0.0553905065	further studies
0.0553896092	scale to
0.0553824569	the estimation of
0.0553783761	some particular
0.0553715751	for modelling
0.0553705887	memory footprint of
0.0553606847	the filtered
0.0553580593	the channel
0.0553564995	infeasible for
0.0553548999	end to end on
0.0553518826	the potential benefits
0.0553486930	the reliability
0.0553475872	the comparator
0.0553472208	way to do
0.0553453716	to solve problems
0.0553445188	entirely from
0.0553441672	as far
0.0553412733	conducted over
0.0553398697	the visible
0.0553378805	many variants
0.0553366353	further increase
0.0553338891	a nominal
0.0553312675	problem over
0.0553308927	d \ rightarrow \ mathbb r
0.0553307101	the utility
0.0553272339	provide good
0.0553238451	in contrast to existing
0.0553229347	and subsequently
0.0553218454	numerical solution of
0.0553200636	covariance matrix for
0.0553194371	\ mathbf x \
0.0553186185	laws from
0.0553090228	a broader range of
0.0553088912	bottlenecks in
0.0553068745	the update
0.0553046074	those approaches
0.0553034633	way to estimate
0.0552963207	into three
0.0552934827	the suitability of
0.0552916046	art algorithm for
0.0552913778	the mutual
0.0552817876	total amount of
0.0552806874	further provide
0.0552786801	a complete characterization
0.0552762196	unstable and
0.0552751545	the impact
0.0552751545	a variable
0.0552748451	the bottom
0.0552736095	a key contribution
0.0552692179	a novel algorithm
0.0552624511	this line of research
0.0552592632	problems associated with
0.0552574441	the permutation
0.0552521336	methods try to
0.0552472907	to construct confidence
0.0552436725	done to
0.0552429144	numerical simulations on
0.0552407363	polynomially in
0.0552391744	a customized
0.0552371586	the intractable
0.0552295656	the failure
0.0552268995	a poor
0.0552235184	on simulated and real data
0.0552179821	maximization with
0.0552170357	the proper
0.0552161317	a non convex optimization
0.0552151067	loss landscape of
0.0552121382	very robust
0.0552118258	this scheme
0.0552117751	two approaches
0.0552103182	the immediate
0.0552093139	work establishes
0.0552084873	the spectrum
0.0552061560	the smoothness
0.0552010740	for assessing
0.0551983046	\ beta ^ * \
0.0551935774	the document
0.0551932677	the objective of
0.0551924296	the applicability of
0.0551882449	the network training
0.0551855661	from one domain to
0.0551781739	sampling with
0.0551777974	the extent
0.0551751896	of vertices
0.0551736720	more popular
0.0551723520	this mapping
0.0551712092	known attacks
0.0551691859	similar or
0.0551656288	cost in terms of
0.0551615066	example applications
0.0551600227	a middle
0.0551572468	in many practical applications
0.0551543146	to serve
0.0551509211	several dimensions
0.0551478493	a non parametric model
0.0551407244	signal to noise ratio of
0.0551371459	algorithm provides
0.0551343091	still learn
0.0551314975	the decision making
0.0551294354	k sparse
0.0551266171	the strength of
0.0551253301	the advantage of
0.0551228493	coordinates of
0.0551171681	an old
0.0551154269	used to validate
0.0551126702	the modality
0.0551061945	causes of
0.0551015206	the evolution of
0.0550995868	show significant improvements
0.0550969356	detected using
0.0550932413	study on
0.0550925583	the behavior
0.0550896445	different individuals
0.0550796575	with different
0.0550784396	so does
0.0550777851	loss based on
0.0550766661	proxy of
0.0550763250	proved for
0.0550760002	this equivalence
0.0550734818	the cornerstone
0.0550728710	different attributes
0.0550707264	up to log
0.0550670775	clean and
0.0550665792	the problem of off policy
0.0550633421	this contribution
0.0550624438	space using
0.0550619589	to support decision
0.0550610428	desire to
0.0550603439	only about
0.0550600742	a peak
0.0550547881	by coupling
0.0550539904	a case study on
0.0550504946	models against
0.0550487707	for developing
0.0550454521	thus provides
0.0550441357	in order to exploit
0.0550425851	the ucr
0.0550407415	developed using
0.0550392535	effectively used
0.0550381953	result allows
0.0550336731	the reverse
0.0550329544	increasingly used to
0.0550326099	a topic
0.0550314560	a few iterations
0.0550303260	better solutions
0.0550293815	of magnitude faster
0.0550285194	\ infty \
0.0550276307	achieved at
0.0550259169	new estimator
0.0550233869	with vanishing
0.0550161925	infeasible in
0.0550113102	simplicity of
0.0550040259	different subspaces
0.0549996641	a k means
0.0549980942	personalization of
0.0549949867	the limiting
0.0549923614	yet not
0.0549917456	front of
0.0549910715	able to consistently
0.0549888510	novel techniques
0.0549798843	this trend
0.0549754981	among tasks
0.0549731532	pros and cons of
0.0549723312	combination with
0.0549699529	the workload
0.0549699303	for improving
0.0549689599	does not improve
0.0549654546	from different
0.0549632689	the price
0.0549592394	like images
0.0549575306	and uniformly
0.0549514532	catalog of
0.0549441532	alignment of
0.0549438844	the paper develops
0.0549413814	the frequentist
0.0549346117	possible classes
0.0549340549	a ubiquitous
0.0549334739	the invertibility
0.0549315031	to prove
0.0549311485	for off policy evaluation
0.0549284049	statistic of
0.0549228795	an already
0.0549207404	in noisy environments
0.0549190038	a binary classification
0.0549179519	the truncation
0.0549175842	also known
0.0549166517	a corresponding
0.0549155842	also incorporate
0.0549146603	at predicting
0.0549132813	does not work
0.0549127890	quickly as
0.0549109699	the label noise
0.0549025806	among variables
0.0548966391	gradient method for
0.0548918474	straightforward to
0.0548917617	of particular importance
0.0548909350	a new representation
0.0548874660	simple to
0.0548847504	optimization algorithm for
0.0548818214	given for
0.0548810524	various practical
0.0548763461	also review
0.0548741468	the full posterior
0.0548642825	the weighted
0.0548571944	bayesian analysis of
0.0548501805	^ d \
0.0548384275	new initialization
0.0548344536	based analysis of
0.0548329548	theoretical analysis on
0.0548307101	the weight
0.0548306555	two instances
0.0548298034	modeling framework for
0.0548288727	the multiplicative
0.0548278385	dropout as
0.0548232482	a benchmark
0.0548230809	a symmetric
0.0548211756	the number of labeled
0.0548117618	the main result
0.0548109530	available for
0.0548066629	generative model of
0.0548031259	a random variable
0.0548001226	in developing
0.0547986576	the volume
0.0547984001	these topics
0.0547972971	the generalization error of
0.0547955773	on investment
0.0547932906	desired to
0.0547921949	the kernel space
0.0547906168	a barrier
0.0547903587	more computationally
0.0547892561	by ensuring
0.0547887640	or even better
0.0547874750	the multi objective
0.0547860267	continuum of
0.0547828718	method under
0.0547809524	the compressed
0.0547803299	guarantee on
0.0547771536	the causal effect
0.0547714597	though many
0.0547711685	first show
0.0547696138	accessible for
0.0547683967	to total
0.0547683491	most representative
0.0547667715	learning based models
0.0547661497	a phase
0.0547651685	sentences with
0.0547646962	the optimization of
0.0547625031	describe several
0.0547599916	technique using
0.0547590255	the log
0.0547582203	much more efficient
0.0547564291	the evidence
0.0547522713	$ ^
0.0547516079	then illustrate
0.0547488030	to influence
0.0547476062	dictionaries with
0.0547414672	a simulator
0.0547397798	the development
0.0547387706	the classification problem
0.0547356079	m =
0.0547333876	the aggregation
0.0547329371	approaches aim to
0.0547312652	does not make
0.0547291539	data drawn from
0.0547286621	to flexibly
0.0547284679	upon prior
0.0547269973	factorization model for
0.0547256511	proposed algorithm uses
0.0547233256	a manner
0.0547214994	and nearly
0.0547200393	min \
0.0547179406	a toy example
0.0547172668	in order to train
0.0547128048	the molecule
0.0547095070	findings show
0.0547087350	all existing
0.0547064510	a sub optimal
0.0547057850	points from
0.0547051492	the value functions
0.0547033313	predict if
0.0547016873	or fewer
0.0547013894	constructed for
0.0547001531	the model prediction
0.0546945306	no further
0.0546941494	model results in
0.0546864518	papers on
0.0546834042	both synthetic and
0.0546788735	$ \ ell \
0.0546740195	the fused
0.0546712160	numeric and
0.0546661120	the interplay
0.0546632316	a stability
0.0546622482	zero one
0.0546588708	a striking
0.0546579030	new algorithm
0.0546548330	examined in
0.0546528108	identification via
0.0546490777	almost surely to
0.0546485261	full knowledge
0.0546456157	between time series
0.0546451095	the cross domain
0.0546450262	proposed method provides
0.0546430792	resources for
0.0546411518	memory requirements of
0.0546381953	underlying system
0.0546359773	translation models
0.0546304955	a shared model
0.0546289872	these relationships
0.0546276432	the conditional probability
0.0546259316	to greatly reduce
0.0546245445	possible even
0.0546216064	gains from
0.0546205476	formulated by
0.0546199666	k \ times
0.0546192259	same as
0.0546186877	the variational parameters
0.0546183074	schemes such as
0.0546165892	on par or
0.0546163698	different structures
0.0546156604	transformers for
0.0546009668	such as stochastic gradient descent
0.0545992857	this view
0.0545980007	such changes
0.0545957297	different brain
0.0545913735	an earlier
0.0545872234	perception of
0.0545869128	this latter
0.0545864696	hyperparameters for
0.0545857903	to discard
0.0545853915	the dimensionality of
0.0545847284	pipeline for
0.0545779519	the nuisance
0.0545757667	optimization approach to
0.0545757361	the proportion
0.0545738388	soundness of
0.0545730035	the automatic
0.0545717059	posterior probability of
0.0545704151	able to reduce
0.0545695856	subroutine in
0.0545686477	also computationally
0.0545672231	the original features
0.0545616659	\ sqrt \
0.0545613788	an optimization method
0.0545553858	the implied
0.0545530515	the number of time steps
0.0545527106	a game
0.0545507035	the optimizer
0.0545506443	both existing
0.0545473505	able to take
0.0545472684	general family of
0.0545462786	also developed
0.0545420707	not scale well
0.0545418372	the non
0.0545386370	an affine
0.0545369485	to new domains
0.0545356369	$ \ delta \
0.0545352493	a general approach
0.0545338260	each local
0.0545305060	applied to many
0.0545291820	such as medicine
0.0545260541	no work
0.0545257091	the increase of
0.0545221575	the existing results
0.0545211269	the base classifiers
0.0545190746	a comprehensive set of
0.0545168539	the scarcity
0.0545095481	novel loss function
0.0545092386	the french
0.0545091989	three new
0.0545086373	a certain sense
0.0545065027	a billion
0.0545012719	further development
0.0545010541	to cause
0.0545001221	better predictions
0.0544997505	a novel machine
0.0544992191	the problem of solving
0.0544946771	the class label
0.0544927697	the same object
0.0544904464	a normal
0.0544896517	work together
0.0544889805	of bacteria
0.0544754053	predictions without
0.0544748613	the attacked
0.0544732998	the model outperforms
0.0544691521	the ubiquitous
0.0544653051	distribution under
0.0544613453	also used
0.0544572787	impacts of
0.0544563311	the k means
0.0544542968	the expected improvement
0.0544533387	the fundamental problem of
0.0544501531	the proposed feature
0.0544467061	a particular task
0.0544431164	a common feature
0.0544426840	give conditions under
0.0544413814	the lazy
0.0544406419	common in many
0.0544401060	a problem specific
0.0544393803	less training time
0.0544373287	between different
0.0544370186	chosen for
0.0544357149	in order to optimize
0.0544345849	a histogram
0.0544334212	a candidate
0.0544303300	for obtaining
0.0544301705	beneficial in
0.0544263178	the analog
0.0544255774	\ alpha =
0.0544230296	the capacity of
0.0544218969	the main contributions
0.0544194582	the sparsity of
0.0544181164	from biology
0.0544133840	the ball
0.0544115536	this term
0.0544112852	the nominal
0.0544093939	both traditional
0.0544083188	a potentially large
0.0544053401	information from different
0.0543970250	the added
0.0543964964	both source
0.0543926282	the ground
0.0543878704	method used in
0.0543874242	a biased
0.0543867980	and gradually
0.0543862836	on several
0.0543846685	the capability
0.0543836327	scenes with
0.0543832196	a tool
0.0543757948	equations for
0.0543747124	method on various
0.0543714391	the accuracy and efficiency
0.0543693403	then consider
0.0543677598	for non convex problems
0.0543592808	for identifying
0.0543525110	the service
0.0543479797	framework leads to
0.0543431922	approach on three
0.0543393754	to shed light
0.0543385208	very suitable
0.0543378832	show via
0.0543355982	a novel unified
0.0543341627	the problem of active
0.0543336393	the preference
0.0543332190	points at
0.0543308927	\ min_ \
0.0543307101	the physical
0.0543260369	the evolution
0.0543234837	a wide variety of tasks
0.0543207588	bounds under
0.0543194356	the averaged
0.0543136545	and empirically evaluate
0.0543127975	better for
0.0543126702	a specific case
0.0543112579	$ iteration
0.0543103736	$ d \
0.0543099028	most interesting
0.0543086400	the daily
0.0543085141	run with
0.0543066998	localized in
0.0543050946	several challenging
0.0543048230	a simplex
0.0543025483	problems under
0.0543014532	invertibility of
0.0542974966	both adversarial and
0.0542948467	the original approach
0.0542946351	a reward
0.0542857903	to pull
0.0542851959	discuss two
0.0542809524	the range
0.0542751545	to label
0.0542722736	a system's
0.0542694972	generalize well on
0.0542678385	increases as
0.0542652206	the rapid growth of
0.0542650120	algorithms tend to
0.0542614734	these efforts
0.0542554636	a given set
0.0542552918	models fail
0.0542543130	$ 5 \
0.0542515050	a single objective
0.0542449717	a useful tool
0.0542426001	the neighboring
0.0542396295	various image
0.0542296494	only uses
0.0542290228	an increased interest in
0.0542286593	this type
0.0542245835	the agnostic
0.0542245328	four state
0.0542245255	as little
0.0542244599	supervised learning on
0.0542199772	the best achievable
0.0542175262	the merits of
0.0542134190	an informed
0.0542109706	the need to
0.0542101171	a large body
0.0542061560	the budget
0.0542049181	the full set
0.0542046575	use of
0.0542046295	new nodes
0.0542030576	parameter learning in
0.0541992878	three real
0.0541989403	a suite
0.0541936607	a deep learning framework for
0.0541925655	method consists of
0.0541788497	stable with respect to
0.0541767248	widely used technique for
0.0541753154	differentiation of
0.0541718402	two blocks
0.0541694402	analyzed in
0.0541677730	the advantages
0.0541665262	the robustness of neural networks
0.0541658209	the expense
0.0541621905	the visualization
0.0541583832	information beyond
0.0541576382	distributed on
0.0541569954	systematic study of
0.0541560332	make three
0.0541505808	able to estimate
0.0541490613	on several synthetic and real
0.0541484196	such as images
0.0541458215	traits of
0.0541453598	both local and global
0.0541453323	an emotion
0.0541407459	the early
0.0541390115	the scenario
0.0541380299	the node embeddings
0.0541348454	compete in
0.0541329114	methods developed for
0.0541326048	between 10
0.0541310590	the support vector
0.0541301351	many parameters
0.0541294955	a concrete example
0.0541288559	a measure
0.0541257959	a comparable
0.0541250496	computational approach to
0.0541185762	a suitably
0.0541176017	the first results
0.0541165891	an adversarial training
0.0541162975	in terms of clustering
0.0541145365	even simple
0.0541141416	algorithms under
0.0541116370	second approach
0.0541102336	most general
0.0541057166	some light
0.0541014792	$ r ^
0.0541005878	the phonetic
0.0540994831	a feedback
0.0540939788	down to
0.0540911317	steps into
0.0540860634	a pilot
0.0540858312	any kernel
0.0540842987	a flexible framework
0.0540807609	such as sparsity
0.0540670722	any optimization
0.0540644061	amount of memory
0.0540625797	given task
0.0540621259	a classifier trained
0.0540606640	the low frequency
0.0540514233	still very
0.0540493873	entropy over
0.0540488522	such as link
0.0540464701	bayesian framework for
0.0540394484	analyzed with
0.0540376856	among users
0.0540349504	the rest of
0.0540328106	the optimal model
0.0540323114	evaluation on three
0.0540308253	the usage of
0.0540308253	the availability of
0.0540301777	a new end
0.0540276896	minimax rates of
0.0540264297	to effectively capture
0.0540230244	embedding via
0.0540191127	a rich source
0.0540168317	other works
0.0540113965	at solving
0.0540089334	in order to build
0.0540052714	task into
0.0539980617	and significantly improves
0.0539966560	do not only
0.0539965378	a pattern
0.0539944630	first propose
0.0539939302	not satisfy
0.0539906509	not easily
0.0539772112	the faithfulness
0.0539702157	network consisting of
0.0539681246	necessary to achieve
0.0539670495	sampling method for
0.0539644662	and other methods
0.0539594048	popular technique in
0.0539593739	via simulations
0.0539577412	whether two
0.0539563290	a number of interesting
0.0539553049	such as object
0.0539522991	the planted
0.0539447203	matter of
0.0539428508	a considerable
0.0539424683	most fundamental problems
0.0539398044	restriction of
0.0539398044	developments on
0.0539391586	the discovery of
0.0539390866	in place of
0.0539389831	an excess
0.0539378934	for calculating
0.0539355872	the principle of
0.0539345503	success in many
0.0539318383	from noisy data
0.0539296040	a player
0.0539268788	both temporal
0.0539261221	the limit of infinite
0.0539253981	two case
0.0539209926	a narrow
0.0539193402	the member
0.0539170287	the most efficient
0.0539168223	more conventional
0.0539163827	own data
0.0539147377	proposed algorithms for
0.0539114559	$ \ | \
0.0539082100	a set of points
0.0539045888	different than
0.0539012099	new observations
0.0539008795	classification performance of
0.0539007664	several widely used
0.0538999066	tool in
0.0538998559	features such as
0.0538964538	to efficiently generate
0.0538963633	used to cluster
0.0538949213	as well as state
0.0538936056	positive rate of
0.0538903769	predictive performance on
0.0538893928	a novel clustering
0.0538883117	effective way to
0.0538875717	present two new
0.0538857407	by making use of
0.0538835446	dimensional set of
0.0538738940	a perceptron
0.0538728258	new observation
0.0538638801	the pressure
0.0538627392	in order to make
0.0538613114	the cluster
0.0538584282	this review
0.0538579239	samples compared to
0.0538565197	scenario with
0.0538552630	the frobenius
0.0538552497	the downstream task
0.0538538234	different inputs
0.0538534992	a by product of
0.0538522311	seen to
0.0538506365	to model free
0.0538445888	first use
0.0538427270	to zero
0.0538344595	way to achieve
0.0538329020	an operational
0.0538322314	era of
0.0538302210	as per
0.0538231732	each set
0.0538230035	the condition
0.0538207374	the computed
0.0538199151	tasks without
0.0538150567	a certain task
0.0538133020	other relevant
0.0538102336	further design
0.0538076424	provides significant
0.0538069653	non convexity of
0.0538040601	amount of attention
0.0538021459	the dependence
0.0538017521	available during training
0.0537972598	the missing values
0.0537961830	such as mnist
0.0537943828	a dirichlet process
0.0537924515	the car
0.0537891029	any policy
0.0537870164	the injected
0.0537857903	a profound
0.0537821463	problem into two
0.0537812760	collected with
0.0537757663	new theoretical
0.0537713895	a new analysis
0.0537707374	the tool
0.0537680946	the modified
0.0537663779	for determining
0.0537626142	promise to
0.0537612212	clustering method for
0.0537592196	a matching lower
0.0537586309	the denoised
0.0537560338	against attacks
0.0537540727	the historical
0.0537533120	the best possible
0.0537528312	a new training
0.0537518505	find good
0.0537462786	more similar
0.0537402103	any size
0.0537391586	the contribution of
0.0537325300	several datasets
0.0537321030	processes such as
0.0537299628	a version
0.0537256732	a new model
0.0537216183	the proposed training
0.0537212212	a hyperplane
0.0537211922	a molecule
0.0537196850	time taken
0.0537195289	to formulate
0.0537154819	in kernel space
0.0537090401	rates without
0.0537079119	generation based on
0.0537074347	exponential family of
0.0537048361	shown good
0.0537038551	a novel random
0.0537003515	models on mobile devices
0.0536994159	to evolve
0.0536941532	benchmark for
0.0536925530	concepts such as
0.0536922651	layer networks with
0.0536904023	three widely used
0.0536902959	demonstrate through
0.0536900686	the split
0.0536878589	a fairly
0.0536834794	ethical and
0.0536829482	trained end to end to
0.0536764749	concepts through
0.0536744613	a transformer
0.0536736375	nearly as
0.0536733723	the mainstream
0.0536730296	the regret of
0.0536723794	outcomes for
0.0536641157	a production
0.0536635069	show promise
0.0536630876	an evidence
0.0536629541	\ b
0.0536621905	the usage
0.0536612945	the uncertainty estimates
0.0536552586	potential use
0.0536546197	to compromise
0.0536541004	the best previous
0.0536511713	efficacy on
0.0536444270	messages from
0.0536441259	quantification in
0.0536425418	the ising
0.0536389889	all patients
0.0536363763	demonstrated on several
0.0536341629	both in terms of accuracy
0.0536327100	a good clustering
0.0536298315	many tasks
0.0536245445	available during
0.0536242309	the increasing availability
0.0536207362	in various ways
0.0536201567	participation in
0.0536189518	a novel gan
0.0536177300	both in terms of
0.0536141507	while most
0.0536109893	the conducted
0.0536103003	the transient
0.0536095335	the frontier
0.0536071869	released in
0.0536067353	the coefficient
0.0536059003	$ \ gamma ^
0.0536025982	supervision from
0.0536025617	important problem of
0.0536018224	or infeasible
0.0535985084	baselines by
0.0535982292	the same dataset
0.0535960844	a macro
0.0535956445	this score
0.0535923729	formulations for
0.0535878867	a link
0.0535869050	sufficient statistics of
0.0535866206	the steady
0.0535866002	matrix factorization for
0.0535821406	the particle
0.0535729984	a range
0.0535711742	inconsistent with
0.0535676367	limited in
0.0535672356	a central problem
0.0535662338	models by using
0.0535574126	the essential
0.0535557837	this constraint
0.0535542072	the richness
0.0535525898	a much larger
0.0535501203	open question in
0.0535475522	not provided
0.0535448599	minima of
0.0535422544	the disturbance
0.0535412391	a branch
0.0535397811	of time series data
0.0535388466	an assumption
0.0535342805	the hub
0.0535334619	for representing
0.0535315713	an emphasis on
0.0535254785	experimental results on several
0.0535244651	sequence into
0.0535234228	the first steps
0.0535228590	the topology
0.0535121188	often better
0.0535093918	the presence of noisy
0.0535075034	experiments to show
0.0535048418	the calibration
0.0535017197	the first one
0.0535012735	battery of
0.0534996115	the most similar
0.0534988502	neighbourhood of
0.0534945906	challenging problem in
0.0534839102	the number of non zero
0.0534837241	a new loss function
0.0534827237	the number of agents
0.0534823264	left to
0.0534774186	time to converge
0.0534753936	different properties
0.0534674383	\ mathbb r ^ m \
0.0534654177	roles of
0.0534560723	a single classifier
0.0534539536	same family
0.0534536112	much as possible
0.0534510168	other than
0.0534503059	the center
0.0534487169	critical issue in
0.0534466405	full bayesian
0.0534432246	well known methods
0.0534415751	such as svrg
0.0534408114	the art performance for
0.0534398236	discriminant analysis with
0.0534389734	in comparison with
0.0534320363	then build
0.0534302327	the causal relationships
0.0534286001	a new criterion
0.0534200688	this subspace
0.0534191090	computable in
0.0534145269	satisfied in
0.0534136492	these scenarios
0.0534130845	the validation
0.0534124573	recognition based on
0.0534064464	the superior
0.0534057766	equivariance to
0.0534011127	a tabular
0.0533992270	then investigate
0.0533992201	the product of
0.0533933715	often not
0.0533931176	a new approach for
0.0533923614	but usually
0.0533907987	filter with
0.0533829701	a steady
0.0533811093	a continual
0.0533777748	attributes from
0.0533768793	for facilitating
0.0533726054	linear model with
0.0533708352	several new
0.0533677793	and extensible
0.0533629682	a strategy
0.0533594915	a domain adaptation
0.0533507443	an initialization
0.0533501596	a triple
0.0533482292	for brain tumor
0.0533470487	k = \
0.0533453032	a product
0.0533414474	a comprehensive study
0.0533403332	the bottleneck
0.0533375277	used to analyze
0.0533356687	further study
0.0533351439	not selected
0.0533344779	the model learned
0.0533338908	the sparsity level
0.0533307101	the direct
0.0533286325	bayesian inference on
0.0533284640	asymptotically optimal in
0.0533265159	for off policy
0.0533206934	variances of
0.0533181496	novel online
0.0533152323	general approach to
0.0533149298	prior to
0.0533144922	the problem of high dimensional
0.0533091642	generative models with
0.0533089538	interventions on
0.0533082239	from observations
0.0533073306	many problems
0.0533072907	then prove
0.0533014151	the conclusion
0.0533012816	a pretrained
0.0532983640	the stochastic gradient
0.0532949687	than previously
0.0532934006	vary with
0.0532920748	the convex relaxation
0.0532918807	the learned knowledge
0.0532847776	the topological
0.0532788361	two stage algorithm
0.0532740897	two clusters
0.0532738032	the model generates
0.0532722300	repository of
0.0532721406	several benchmark
0.0532679028	this norm
0.0532640970	or larger
0.0532592360	these contributions
0.0532548418	the labeled
0.0532539396	this gap by
0.0532535198	syntactic and
0.0532492805	the asymmetry
0.0532487169	crucial step in
0.0532433064	optimal set of
0.0532413814	the conversation
0.0532412754	pairs from
0.0532387952	the existing state of
0.0532381767	other potential
0.0532340128	to exhibit
0.0532322543	the q values
0.0532276215	helpful to
0.0532261099	and real datasets
0.0532239828	framework capable of
0.0532210414	developed as
0.0532166859	so called \
0.0532157977	robust than
0.0532138858	two mechanisms
0.0532124986	overall training time
0.0532121913	the specification
0.0532109389	the amplitude
0.0532093383	the multinomial
0.0532080486	such as speech
0.0532063948	the first systematic
0.0532051663	a toy
0.0532022514	and more stable
0.0531899146	couple of
0.0531865264	autoencoder with
0.0531855872	a notion of
0.0531847776	the pipeline
0.0531840235	only take
0.0531780015	the asymptotic behaviour
0.0531761184	provide evidence for
0.0531752607	research directions for
0.0531724665	governing equations of
0.0531667305	conducted in
0.0531662591	the consensus
0.0531600490	overall error
0.0531576128	training such models
0.0531572949	crucial in many
0.0531507765	the scattering
0.0531495854	classification via
0.0531462812	the variety
0.0531436047	two communities
0.0531433994	attention for
0.0531431718	different from
0.0531427326	made in
0.0531392008	typically used in
0.0531386379	to capture complex
0.0531356997	error from
0.0531327630	r ^ d \
0.0531327335	first end to end
0.0531327102	insight from
0.0531299146	memberships of
0.0531299146	arrive in
0.0531287060	available information
0.0531245345	divergence for
0.0531244650	\ beta =
0.0531237187	for diagnosing
0.0531199381	verified in
0.0531184559	a capsule
0.0531169429	promising way
0.0531152731	the recent developments
0.0531136419	the age
0.0531130432	$ n \
0.0531050484	the passive
0.0530974300	popular technique for
0.0530973487	technique on
0.0530956773	appropriate in
0.0530907406	best architecture
0.0530890161	either by
0.0530876180	the scope of
0.0530855311	the regularization term
0.0530848661	simple method for
0.0530818140	arm identification in
0.0530785976	by interpreting
0.0530756947	make use
0.0530727907	such tools
0.0530723028	in many scientific
0.0530707862	a supervised setting
0.0530702140	hyperparameter tuning of
0.0530654735	the error term
0.0530626552	and computationally efficient
0.0530590380	a final
0.0530567152	best accuracy
0.0530556287	a direction
0.0530518152	by varying
0.0530494269	the explored
0.0530461883	the risk of overfitting
0.0530453960	many domains
0.0530453960	then perform
0.0530443014	this new approach
0.0530431717	verification system
0.0530430480	measurements at
0.0530425425	to ignore
0.0530417511	that end
0.0530409584	the transition function
0.0530324964	these four
0.0530241076	innovation of
0.0530199469	smoothness of
0.0530190330	understanding on
0.0530180894	various cases
0.0530141700	two sub
0.0530136939	consisting of two
0.0530129410	a novel analysis
0.0530043522	provides additional
0.0529978602	adjustment of
0.0529971772	six real
0.0529841952	four image
0.0529807173	the sensitivity
0.0529793003	dataset based on
0.0529773172	the new framework
0.0529769030	component analysis via
0.0529751067	accuracies of
0.0529704071	the post
0.0529675951	univariate time
0.0529668509	and not just
0.0529664350	the conditioning
0.0529616380	the sub
0.0529597410	and more efficient
0.0529542804	the guidance
0.0529542804	the progression
0.0529508194	evaluated for
0.0529475832	come in
0.0529452846	algorithms capable of
0.0529430906	other objects
0.0529398611	expected error of
0.0529338946	a non negative
0.0529288341	memorization of
0.0529257829	the acoustic
0.0529181637	a diagonal
0.0529123314	the relevance of
0.0529120761	the periodic
0.0529116560	the phenomenon
0.0529109813	an approximated
0.0529093939	both individual
0.0529061679	an unstable
0.0529057837	a composite
0.0529027926	such as tensorflow
0.0529005474	on synthetic examples
0.0528968092	to state of
0.0528956591	an example of
0.0528946447	a domain
0.0528932841	the input and output
0.0528909406	cnns with
0.0528902210	well under
0.0528871491	new data driven
0.0528868846	the task of detecting
0.0528805277	the downstream
0.0528788080	an accurate model
0.0528748957	the uniqueness
0.0528746081	the presence of unobserved
0.0528724110	to perform approximate
0.0528683850	most popular algorithms
0.0528632462	to sub optimal
0.0528631282	variance reduction in
0.0528595356	the log partition
0.0528575207	an existing
0.0528562652	do not allow
0.0528517004	a raw
0.0528507443	by jointly
0.0528458619	the template
0.0528447608	core idea of
0.0528436835	several promising
0.0528428826	logits of
0.0528413530	first order algorithm
0.0528354671	decay of
0.0528344890	city of
0.0528340719	a *
0.0528336515	correlation with
0.0528328351	the data stream
0.0528321848	the first unified
0.0528313061	speedups in
0.0528283995	a deep recurrent neural
0.0528273691	a fruitful
0.0528250611	the union
0.0528249650	the downstream tasks
0.0528192839	both natural
0.0528146716	of calculating
0.0528131713	a pivotal
0.0528125106	a dependency
0.0528115601	experience from
0.0528079980	various state of
0.0528013312	new regularization
0.0528002592	against strong
0.0527990170	the adversarial training
0.0527936742	often yield
0.0527924321	the learned parameters
0.0527919642	a backdoor
0.0527910980	an approach to
0.0527888145	used to test
0.0527862880	a cumulative
0.0527854209	over several
0.0527830647	policies over
0.0527787978	relatively new
0.0527752477	foundation of
0.0527723215	a reformulation
0.0527682194	naturally allows
0.0527663259	also performed
0.0527655725	the optimal control
0.0527646962	the classification of
0.0527617599	under attack
0.0527477385	into regions
0.0527438037	then explore
0.0527436629	the gamma
0.0527420366	on two tasks
0.0527416412	new benchmark
0.0527330681	especially well
0.0527311799	models against adversarial
0.0527287789	ranked list of
0.0527279051	the row
0.0527236394	as quickly
0.0527198553	pixels in
0.0527148200	a diverse
0.0527104487	propose here
0.0527080912	better at
0.0527061904	an ill
0.0527051316	the intermediate
0.0526989527	a sparse set of
0.0526940628	of things
0.0526852283	estimated as
0.0526821953	variational approach to
0.0526812325	various graph
0.0526768792	transfers to
0.0526746837	a high order
0.0526673520	the art accuracy on
0.0526654483	a new dataset
0.0526650044	available in
0.0526632382	such as pruning
0.0526629168	the model parameter
0.0526589035	a new state of
0.0526543314	dependence structure of
0.0526527670	the combination
0.0526494632	the feature vector
0.0526475758	cifar 10 dataset and
0.0526442901	the imposed
0.0526438973	a sequence of tasks
0.0526405897	a concept
0.0526403965	performance of state of
0.0526382316	a vision
0.0526347554	happen in
0.0526331494	options for
0.0526307316	described in
0.0526200710	no other
0.0526187458	reduction over
0.0526168839	experimentation with
0.0526168332	the task at hand
0.0526052087	samples without
0.0526040983	the voice
0.0526039474	a team
0.0526032746	several classical
0.0526028875	compressed models
0.0526007202	therefore propose
0.0526001157	the spatial domain
0.0525977111	advance of
0.0525947981	adjustment for
0.0525944946	both robust
0.0525913735	an easier
0.0525885963	to expose
0.0525883055	also increases
0.0525864518	association with
0.0525851160	the full joint
0.0525817044	candidate for
0.0525801624	decoupling of
0.0525734609	a degree
0.0525704914	the appropriate
0.0525702725	perform as well
0.0525576138	the thresholded
0.0525515998	give better
0.0525482692	the prediction risk
0.0525470127	a mix
0.0525468258	on six
0.0525424788	bounds in terms of
0.0525276144	most suitable
0.0525220426	contributions from
0.0525219267	with isotropic
0.0525166345	unmixing of
0.0525149264	way to address
0.0525146438	the non convex nature of
0.0525138801	abstractions for
0.0525105266	this augmented
0.0525073301	the synergy
0.0525041944	used to approximate
0.0525041713	the synthesized
0.0525025151	a regression
0.0524992824	to alter
0.0524936443	for creating
0.0524908970	the other based
0.0524871913	the gd
0.0524857808	predictor with
0.0524841334	accuracy under
0.0524832159	entries in
0.0524824815	if not
0.0524822986	while addressing
0.0524811861	used to optimize
0.0524798762	rates at
0.0524797218	to view
0.0524766079	first estimate
0.0524723346	on synthetic and real datasets
0.0524722122	no labeled
0.0524679182	a row
0.0524653029	often unknown
0.0524635902	the cluster structure
0.0524606118	problem using
0.0524580112	two classes of
0.0524534612	and computationally
0.0524529165	intractable for
0.0524517525	new results
0.0524514608	in different ways
0.0524502068	more complete
0.0524477856	methodology on
0.0524472549	the number of points
0.0524440199	analogy with
0.0524404765	describe two
0.0524387715	do not address
0.0524384812	the optimism
0.0524330095	problem because
0.0524282681	structure into
0.0524215742	a remarkable
0.0524190038	a metric learning
0.0524171275	on par with state of
0.0524159030	generalization capabilities of
0.0524155021	the acquisition
0.0524146773	principled way of
0.0524142141	a superset of
0.0524098749	many commonly used
0.0524096094	a trend
0.0524083469	both single
0.0524057766	imperceptible to
0.0523985859	a method to
0.0523963575	a data distribution
0.0523940082	an assessment
0.0523929725	the implementation
0.0523913312	noises in
0.0523894226	common approach to
0.0523816656	related by
0.0523803887	label noise in
0.0523768793	for stabilizing
0.0523716545	ball in
0.0523714822	recommended for
0.0523708368	the abundance
0.0523649301	language model for
0.0523588048	the main problems
0.0523473268	an entirely
0.0523440337	need to solve
0.0523381613	goes to
0.0523354174	most recently
0.0523322314	vital to
0.0523304238	the investigation
0.0523254178	the sum of squares
0.0523229158	improvement in terms of
0.0523218786	either require
0.0523101878	relative merits of
0.0523056237	a new reinforcement
0.0522971132	positions of
0.0522948576	the gated recurrent
0.0522924073	available through
0.0522881236	estimation error of
0.0522872990	the imputed
0.0522852599	the violation
0.0522811298	benign and
0.0522808253	the interpretability of
0.0522808253	the generation of
0.0522791910	a third
0.0522751545	a cost
0.0522733597	any further
0.0522722480	solutions with
0.0522718613	approximators for
0.0522714260	the subsampling
0.0522713904	of thousands
0.0522709499	very hard to
0.0522686486	the grid
0.0522673607	optimal algorithm for
0.0522604609	on randomly generated
0.0522588331	or exceed
0.0522552086	a class of generative
0.0522543857	no labels
0.0522505143	several other
0.0522481671	a majority
0.0522472762	such situations
0.0522439776	scalable than
0.0522430040	validated in
0.0522359840	the relationship
0.0522356317	trained for
0.0522354271	a given size
0.0522352641	well known for
0.0522285946	first describe
0.0522280590	execution of
0.0522191918	an out of
0.0522174383	$ \ chi ^
0.0522160231	an associated
0.0522143846	also introduced
0.0522136573	parameters without
0.0522121913	the parametrization
0.0522119461	successfully used to
0.0522116361	monitoring using
0.0522080269	used to measure
0.0522059296	a drawback
0.0522041548	misspecification of
0.0522002861	f score of
0.0522002141	desirable properties such
0.0521992201	the ratio of
0.0521870127	to overlap
0.0521870127	to moderate
0.0521847554	absent in
0.0521847148	the clipping
0.0521826153	a large training
0.0521667667	certain features
0.0521639704	a new clustering
0.0521627168	a cloud
0.0521585825	both fully
0.0521584287	the latent spaces
0.0521559180	by obtaining
0.0521519493	uncertainty into
0.0521515805	in addition to providing
0.0521513010	behaviour in
0.0521511912	degeneracy of
0.0521442924	while identifying
0.0521415492	different areas
0.0521402749	uncertainty estimation in
0.0521322246	more attention
0.0521287332	a novel dataset
0.0521269596	a slow
0.0521248051	the downlink
0.0521232039	some novel
0.0521231378	closeness of
0.0521202273	the backward
0.0521198009	for benchmarking
0.0521184559	a lifelong
0.0521135361	the problem of jointly
0.0521112138	then construct
0.0521107035	the integral
0.0521081111	entry of
0.0521051416	key challenge of
0.0521041874	new policy
0.0521014332	by jointly learning
0.0521009272	motifs in
0.0520964755	outlier detection with
0.0520962786	many common
0.0520951746	come to
0.0520934869	number of people
0.0520878009	a small amount of data
0.0520846186	the fitted
0.0520833853	an algorithm for learning
0.0520824663	the relevance
0.0520803697	further support
0.0520790516	method in terms of
0.0520789694	the root
0.0520746895	a generalization bound
0.0520744384	drugs for
0.0520744384	innovation in
0.0520722504	a popular method
0.0520645722	any classification
0.0520599935	possible if
0.0520584615	the proposed joint
0.0520531618	forecasts with
0.0520523502	a discretized
0.0520508001	design two
0.0520460023	inference approach to
0.0520440379	a criterion
0.0520363656	approach over
0.0520347116	the deconfounder
0.0520347071	a perturbation
0.0520310161	only achieve
0.0520306737	transparency of
0.0520300025	distributions into
0.0520266378	training procedure for
0.0520262747	dimension reduction in
0.0520257890	the inner workings of
0.0520252583	provide more
0.0520241956	the demand
0.0520202000	in particular on
0.0520191465	over baselines
0.0520095849	a trial
0.0520088857	both computationally
0.0520053837	an application of
0.0520019098	codes with
0.0520018070	influence from
0.0520010405	between domains
0.0520008045	to show
0.0519992111	regret than
0.0519989570	any test
0.0519985733	as \ textit
0.0519962671	first analyze
0.0519962459	a subtle
0.0519922753	the proposed multi
0.0519895762	the optimal design
0.0519758678	the statistical physics
0.0519755726	to cross
0.0519679830	this work extends
0.0519635190	binary classification with
0.0519628550	in order to tackle
0.0519580112	some form of
0.0519578545	the identified
0.0519577463	a known
0.0519540180	a weakly
0.0519535824	explored for
0.0519501531	the model outputs
0.0519477206	particularly well
0.0519445745	the anomaly
0.0519434355	each problem
0.0519424865	a new deep
0.0519417667	two additional
0.0519407900	a new problem
0.0519391586	the spectrum of
0.0519391586	the optimality of
0.0519387571	the preprocessing
0.0519334889	also explain
0.0519319322	distribution within
0.0519270532	demographics of
0.0519257829	the trend
0.0519222970	met in
0.0519180947	suggested for
0.0519130774	many fewer
0.0519104689	efficient representation of
0.0519102334	those produced by
0.0519097291	a targeted
0.0519066710	the need
0.0519065478	a novel feature
0.0519035497	some initial
0.0518986054	the utility function
0.0518985859	the combination of
0.0518973597	kernels with
0.0518972480	processes with
0.0518925766	between distributions
0.0518913312	treatments for
0.0518845642	efficiency by
0.0518844132	the transition
0.0518779996	application domains such as
0.0518765464	typically used for
0.0518750122	in many aspects
0.0518696062	the capacity
0.0518686400	the equilibrium
0.0518653601	a novel attention
0.0518635102	a posterior
0.0518631001	classifiers with
0.0518596683	$ p = \
0.0518585801	the number of labels
0.0518563118	those obtained from
0.0518562621	many biological
0.0518525827	obstacles in
0.0518474108	competitive in terms of
0.0518472634	often represented
0.0518464766	the dataset size
0.0518457945	a bad
0.0518457339	two state of
0.0518438329	other similar
0.0518408815	training methods for
0.0518394484	operation with
0.0518388168	a trivial
0.0518339746	investigated for
0.0518339211	the opponent
0.0518330992	a limited amount
0.0518320705	problem via
0.0518311447	a server
0.0518294996	not only does
0.0518262225	the secure
0.0518257632	the exploitation
0.0518234001	these correlations
0.0518225129	the discriminant
0.0518195178	both convergence
0.0518170368	most often
0.0518139289	thorough experiments on
0.0518129643	most efficient
0.0518107588	descent on
0.0518103439	especially at
0.0518093794	such approximations
0.0518091524	competitors on
0.0518067112	agreement of
0.0518050800	based on state of
0.0518044572	a regression problem
0.0517902687	an upper confidence
0.0517869158	feasible for
0.0517820633	several novel
0.0517815478	a novel sampling
0.0517774757	the perceived
0.0517759466	experiences in
0.0517727070	a non smooth
0.0517709708	the consistency
0.0517673177	the art predictive
0.0517651983	adjust to
0.0517646962	the consistency of
0.0517606799	an approximately
0.0517602131	models with
0.0517597438	the art models on
0.0517588801	capacities of
0.0517577024	dimensional representations of
0.0517510047	causal effects in
0.0517503184	parametric estimation of
0.0517448440	the first problem
0.0517417454	\ mathcal x \
0.0517412999	a novel loss function
0.0517392561	the transferred
0.0517392127	the gated
0.0517378676	the way
0.0517347913	able to match
0.0517329204	for accelerating
0.0517321702	opportunity to
0.0517310580	fail in
0.0517277238	this new method
0.0517167585	accuracy while
0.0517132830	a polytope
0.0517130297	to achieve fast
0.0517123837	a likelihood function
0.0517096283	the huge
0.0517038854	the computation of
0.0517025002	the optimal number of
0.0516924926	fall in
0.0516882787	a parameter free
0.0516840595	a feedforward
0.0516820608	this modification
0.0516780138	the apparent
0.0516771496	the regular
0.0516619559	presented to show
0.0516572710	all considered
0.0516553239	the benefit
0.0516504076	by enabling
0.0516479602	leaves of
0.0516467164	to count
0.0516447026	the winner
0.0516441259	drift in
0.0516399714	model leads to
0.0516397995	various properties
0.0516288285	an acoustic
0.0516276689	the statistical significance
0.0516264243	using synthetic and real world
0.0516233858	the backpropagation algorithm
0.0516221090	often found
0.0516161362	possibility to
0.0516152640	the input feature
0.0516135058	the topology of
0.0516095335	the focal
0.0516077463	and more
0.0516057733	a faster
0.0516048397	all four
0.0516043522	still achieve
0.0516018621	a perturbed
0.0515985401	given sufficient
0.0515982267	often fail to
0.0515932980	argument for
0.0515914059	least absolute shrinkage and
0.0515869334	a vertex
0.0515846186	the enormous
0.0515826849	novel approach
0.0515824663	the construction
0.0515788813	a three dimensional
0.0515777098	case study for
0.0515686082	minimization with
0.0515640737	rather than by
0.0515620408	the closeness
0.0515596070	the subgradient
0.0515532632	a broader class of
0.0515474723	and widely used
0.0515454793	popularity in
0.0515450523	adjacency matrix of
0.0515420398	proximity of
0.0515389337	inference from
0.0515346901	representation from
0.0515341969	the posterior predictive
0.0515329044	consumption of
0.0515292461	then employs
0.0515272388	also available
0.0515250501	trained on one
0.0515234311	m = o
0.0515214696	agents with
0.0515195964	the i vector
0.0515180145	the same optimal
0.0515137899	those learned
0.0515119317	the empirical bayes
0.0515112212	classification framework for
0.0515055369	intention to
0.0515038345	first study
0.0514986144	against black
0.0514965650	the correlated
0.0514941262	this concept
0.0514933059	both real
0.0514914624	selected using
0.0514898842	systems need to
0.0514873907	confirmed in
0.0514862796	for handling
0.0514841170	recovered as
0.0514833131	a classifier based
0.0514806411	convergence rate as
0.0514777855	novelty of
0.0514750948	the plain
0.0514741636	a map
0.0514702196	performs as well as
0.0514664073	marginal likelihood of
0.0514622130	in other cases
0.0514555692	the learned graph
0.0514550053	not work
0.0514516581	every training
0.0514485323	same type
0.0514453074	sim to
0.0514448997	the rate of convergence
0.0514447026	the mapped
0.0514396434	optimization under
0.0514393721	selection with
0.0514381907	the multi level
0.0514374289	the modularity
0.0514331132	package with
0.0514323722	a screening
0.0514323153	the use of multiple
0.0514321119	learn more
0.0514183879	network trained on
0.0514165338	these characteristics
0.0514156915	applicable in
0.0514139288	decision maker to
0.0514086132	these optimization
0.0514085811	any machine learning
0.0514085393	action at
0.0514066633	to correlate
0.0514051232	guide for
0.0514013011	same subspace
0.0513997157	representation learning for
0.0513931176	a novel framework for
0.0513929725	the regularized
0.0513911150	the task specific
0.0513881352	transparent and
0.0513852290	a feature based
0.0513837976	the region
0.0513830174	a neural model
0.0513827873	and only requires
0.0513820089	the large margin
0.0513812366	to model selection
0.0513772040	such as recurrent
0.0513723191	the margin distribution
0.0513705210	a device
0.0513676288	much work
0.0513674756	much more robust
0.0513674074	the realm of
0.0513625255	the compute
0.0513597221	semantics of
0.0513584325	the data representation
0.0513567873	the second order
0.0513565365	for verifying
0.0513546431	this aim
0.0513514848	the confounder
0.0513495100	curves from
0.0513488801	energies of
0.0513454345	a generalization error
0.0513435900	the first part
0.0513412391	a plain
0.0513405063	designed as
0.0513403332	the discrepancy
0.0513359552	overcome by
0.0513358546	with constant step
0.0513307101	the exponential
0.0513305873	as close
0.0513223347	then leverage
0.0513207374	the independence
0.0513204322	clustering algorithms for
0.0513142406	to find optimal
0.0513134947	setting under
0.0513120952	a nearly optimal
0.0513115738	an implementation
0.0513115738	by building
0.0513093058	a reduction
0.0513078709	light of
0.0513039224	and manually
0.0513037936	method over
0.0512974955	present experiments on
0.0512909495	in complex environments
0.0512901887	better suited for
0.0512882436	a special case of
0.0512851347	a factored
0.0512837034	then uses
0.0512803969	scores from
0.0512780443	n \ epsilon ^
0.0512759283	problem in many
0.0512751545	the area
0.0512727608	the desire
0.0512722736	a faithful
0.0512712957	an established
0.0512617725	training and evaluation of
0.0512602045	a base
0.0512548418	the block
0.0512537663	to keep track of
0.0512503182	tested for
0.0512481872	the adoption
0.0512378767	and non adaptive
0.0512341035	the adjacency
0.0512332533	a submodular
0.0512325518	also significantly
0.0512248502	via randomized
0.0512248247	only over
0.0512225980	a critical problem
0.0512221623	$ \ mathbb r
0.0512216815	an increase in
0.0512203382	increases with
0.0512169031	various forms of
0.0512128519	the ocean
0.0512096283	the complementary
0.0512037427	the moderate
0.0512030657	the data samples
0.0511999588	a simple yet efficient
0.0511935249	classifier by
0.0511931206	and easy to implement
0.0511892876	the variational autoencoder
0.0511891586	a type of
0.0511891187	via transfer learning
0.0511843720	the same accuracy
0.0511782871	each observed
0.0511745995	to put
0.0511745687	on toy
0.0511739968	for projecting
0.0511734114	different fields
0.0511692454	forward pass of
0.0511670619	magnitudes of
0.0511661598	proposed methods over
0.0511657931	of magnitude
0.0511656874	such as entropy
0.0511652017	new criterion
0.0511625026	the generalization capability
0.0511615559	value of information
0.0511602092	a high quality
0.0511581176	a hierarchy of
0.0511527202	of hyperplanes
0.0511490199	domain knowledge to
0.0511485859	the construction of
0.0511476343	a novel tree
0.0511476343	a new lower
0.0511446804	an efficient inference
0.0511446074	each specific
0.0511436837	with variance reduction
0.0511413430	not only to
0.0511364474	for specifying
0.0511344494	d \ geq
0.0511337976	the word
0.0511333799	a guarantee
0.0511300056	such as word
0.0511289317	an order
0.0511247822	other machine learning
0.0511246107	two tasks
0.0511237214	and so on
0.0511217799	the upper
0.0511213002	unifying view of
0.0511209470	a transportation
0.0511203408	a favorable
0.0511197011	the time domain
0.0511158466	built with
0.0511117388	task due to
0.0511032746	system behavior
0.0511022229	sequences with
0.0511002411	a realization
0.0510970836	the fourth
0.0510965144	delays in
0.0510954188	first consider
0.0510944612	the model training
0.0510919912	generation via
0.0510901055	the graph convolution
0.0510883191	predictability of
0.0510849691	tolerance of
0.0510816638	gold standard for
0.0510808035	models play
0.0510789791	by representing
0.0510735623	extent of
0.0510734114	also introduces
0.0510727903	the metadata
0.0510721885	a new set
0.0510702265	those produced
0.0510661431	reported to
0.0510583210	a two fold
0.0510531618	disparity in
0.0510476653	choices for
0.0510463224	diseases such as
0.0510444143	tails of
0.0510410981	situation in
0.0510400505	argue for
0.0510343181	the surrogate
0.0510342115	extensively used to
0.0510317205	the art algorithms for
0.0510296742	from positive and unlabeled
0.0510294896	approach does not
0.0510288801	$ 10 \
0.0510243783	novel end to end
0.0510194111	the batch setting
0.0510181800	best performing models
0.0510166645	to state of art
0.0510094395	$ distortion
0.0510063256	at test
0.0510063256	such settings
0.0510052714	knowledge between
0.0510029585	fails in
0.0510003182	demonstrated with
0.0509970956	provides accurate
0.0509918023	favorable for
0.0509893665	available about
0.0509891983	than current state of
0.0509890973	spectra of
0.0509863175	a wealth
0.0509860082	only available
0.0509843962	the number of active
0.0509807082	a few samples
0.0509791860	this work demonstrates
0.0509736720	different variants
0.0509714723	the need for expensive
0.0509689262	while making
0.0509685107	explained in
0.0509637422	gives more
0.0509633364	first give
0.0509596283	the encoded
0.0509578545	the database
0.0509527152	the transition matrix
0.0509490956	and then show
0.0509484286	features related to
0.0509465816	any loss
0.0509413814	the spectrogram
0.0509413814	the epidemic
0.0509391586	the sensitivity of
0.0509391586	the performances of
0.0509391170	a coupled
0.0509304600	^ 3 n
0.0509302912	methods focus on
0.0509279721	efficient alternative to
0.0509265484	but not least
0.0509207206	even small
0.0509148596	of different sizes
0.0509140359	need more
0.0509094490	over other
0.0509045333	possible to learn
0.0509044260	invariances in
0.0509027504	an effort to
0.0509026287	directly over
0.0509004927	layer based on
0.0508998304	features from different
0.0508920901	a recent line
0.0508891805	the applicability
0.0508880641	estimates from
0.0508874528	\ circ \
0.0508862061	competitors in
0.0508819912	receptive field of
0.0508729697	phase transition for
0.0508710306	\ delta 0
0.0508686400	the interval
0.0508621581	the necessary
0.0508606118	existing models
0.0508599921	agent with
0.0508582329	network for
0.0508558614	data sets show
0.0508556881	often use
0.0508554779	policies via
0.0508528546	a crowd
0.0508524390	to exactly recover
0.0508459491	or very
0.0508458910	this general
0.0508409547	extensive experiments on two
0.0508384954	rise of
0.0508375214	empirical evidence of
0.0508370714	principle for
0.0508333149	remain to
0.0508272441	predictions over
0.0508250904	boltzmann machines with
0.0508195192	constructed with
0.0508159536	a recent approach
0.0508076424	various application
0.0508076143	the semidefinite
0.0508054697	this benchmark
0.0508034728	do not directly
0.0508008109	thresholds for
0.0507987607	not better than
0.0507983250	way to compute
0.0507981717	a super
0.0507941507	only consider
0.0507939451	algorithm using
0.0507923305	the general problem of
0.0507847796	three real data
0.0507847776	the mixing
0.0507809272	ensemble method for
0.0507798566	case study using
0.0507793369	the labelled
0.0507773502	a circular
0.0507741956	the survey
0.0507741956	the greedy
0.0507717399	full advantage
0.0507709156	studied as
0.0507680946	the measured
0.0507631738	the time varying
0.0507511165	applied to various
0.0507408867	the likelihood of
0.0507381164	the extraction
0.0507345957	drifts in
0.0507313674	a mathematical model
0.0507298209	on synthetic and real
0.0507292804	the optimistic
0.0507257569	used in combination with
0.0507227569	available datasets
0.0507224981	independently on
0.0507202586	conducted on two
0.0507180184	on three public
0.0507153491	the diversity of
0.0507071661	provides consistent
0.0507030035	other features
0.0507010401	the number of topics
0.0507005528	approaches focus on
0.0507005309	a paradigm
0.0506994924	generation of new
0.0506941109	the same rate
0.0506876375	the audio
0.0506863507	the theoretical foundations
0.0506738801	termination of
0.0506711727	to further enhance
0.0506689442	or nearly
0.0506684316	the number of false
0.0506610658	optimization algorithms for
0.0506599530	for time series classification
0.0506581176	a new framework for
0.0506547305	normal or
0.0506544260	practices in
0.0506536662	the mentioned
0.0506499066	provided to
0.0506491447	the art results for
0.0506457560	works well for
0.0506429097	heart of
0.0506385966	most commonly used
0.0506383148	registration of
0.0506337805	the mixed
0.0506294401	a trade off
0.0506246779	used to make
0.0506241886	only linearly
0.0506213377	a star
0.0506210030	various examples
0.0506207002	different attack
0.0506200710	since most
0.0506196577	a new methodology
0.0506181911	the most practical
0.0506143791	one hidden
0.0506135058	the depth of
0.0506135058	the direction of
0.0506130710	as shown in
0.0506100802	a multiclass
0.0506094158	$ q \
0.0506066065	the learned policies
0.0506006902	made over
0.0505982697	the width
0.0505982292	the new model
0.0505935955	the correlation
0.0505934464	technique allows
0.0505883487	applications in various
0.0505838750	the dynamic regret
0.0505835349	any labeled
0.0505773666	such as autonomous driving
0.0505772339	change over
0.0505751986	such as random
0.0505749454	devised for
0.0505747170	first learns
0.0505730035	the randomized
0.0505719965	opinions in
0.0505682346	such measures
0.0505680244	the majority of existing
0.0505653889	methods tend to
0.0505630564	a complicated
0.0505628031	a new way
0.0505613472	many orders of magnitude
0.0505606847	the stepsize
0.0505603439	make two
0.0505599381	technology for
0.0505567149	many aspects
0.0505546418	a seamless
0.0505543906	experiments on different
0.0505543410	to attend
0.0505522518	a virtual
0.0505505976	a calibrated
0.0505491256	any neural network
0.0505484748	each parameter
0.0505450713	scale well with
0.0505427560	the recommender
0.0505397993	the state action
0.0505300677	the way for
0.0505294593	this broader
0.0505270462	under standard
0.0505246461	a significantly lower
0.0505196076	usually do not
0.0505185288	a projected
0.0505161440	a working
0.0505157576	the k nearest
0.0505146395	other measures
0.0505139294	decide whether to
0.0505080113	morphology of
0.0505064558	a small training
0.0505060037	to read
0.0505004342	an inference problem
0.0504975734	several techniques
0.0504892037	to merge
0.0504879695	runs on
0.0504818719	this new
0.0504791181	to skip
0.0504760682	expressivity of
0.0504706709	more expressive than
0.0504700145	a dataset of
0.0504634789	marginalization of
0.0504606367	a piecewise
0.0504508557	over traditional
0.0504503540	a structure
0.0504502068	then combined
0.0504484027	shown by
0.0504370242	also derived
0.0504353135	to explicitly model
0.0504297646	the training cost
0.0504266780	the unknown parameters
0.0504249624	baseline for
0.0504230296	the magnitude of
0.0504221501	to hold
0.0504213015	the sense of
0.0504170369	the false positive
0.0504158906	a multivariate gaussian
0.0504116654	several data sets
0.0504104500	the non convexity of
0.0504102904	statistical estimation of
0.0504102713	perform poorly in
0.0504094490	no such
0.0504091942	the galaxy
0.0504087474	learning aims to
0.0504063953	shot learning with
0.0504033656	high performance on
0.0504023529	the quality of learned
0.0504013542	this second
0.0503911005	on out of distribution
0.0503840537	number of possible
0.0503790738	and memory costs
0.0503773597	a retrospective
0.0503748687	the same test
0.0503714423	workflow for
0.0503703716	method capable of
0.0503654298	baselines in
0.0503627835	a new one
0.0503614972	the chain
0.0503603003	the histogram
0.0503599537	the entropic
0.0503587697	new technique
0.0503585675	one type
0.0503580269	in such scenarios
0.0503578545	the regularizer
0.0503577342	a heterogeneous
0.0503564192	these optimization problems
0.0503561846	three settings
0.0503548307	a long time
0.0503541670	to solve challenging
0.0503511609	the minimizer
0.0503460665	a variety of simulated
0.0503434864	a thorough analysis of
0.0503424496	the stream
0.0503341918	the real line
0.0503236744	the investigated
0.0503158677	this dependence
0.0503154520	to provide accurate
0.0503140404	tasks in computer
0.0503100006	a key problem
0.0503071588	the prior state
0.0503060387	a classical problem
0.0503046799	the neighborhood
0.0503037609	interpretations for
0.0503013644	from as few
0.0503002519	call for
0.0502949334	the similarity matrix
0.0502892833	lacking in
0.0502830598	different conditions
0.0502826782	to reason about
0.0502811681	the condition number of
0.0502769685	events such as
0.0502752770	more than one
0.0502740392	also make
0.0502684046	inputs such as
0.0502679058	to interact
0.0502647386	for studying
0.0502594050	this extension
0.0502592048	the causal effects
0.0502550952	the recent progress
0.0502519220	expertise in
0.0502517149	considered by
0.0502510619	the whole process
0.0502340235	also contains
0.0502329586	insufficient to
0.0502313023	this operator
0.0502252202	the relation between
0.0502227246	from different modalities
0.0502210349	a new randomized
0.0502161247	practices for
0.0502147921	a latent state
0.0502124361	individuals with
0.0502096283	the involved
0.0502085349	several alternative
0.0502082757	of stay
0.0502080342	the optimal learning
0.0502075780	a parametrized
0.0502064794	literature for
0.0502064411	the fixed point
0.0502057817	an estimate
0.0502052586	patients into
0.0502051172	the pros and cons
0.0502001986	a new graph
0.0501993498	the input parameters
0.0501983377	allows to
0.0501982388	based language models
0.0501975371	possible to predict
0.0501958677	results obtained in
0.0501950564	up to now
0.0501929332	the sky
0.0501899933	norms with
0.0501882417	to assume
0.0501864434	the coefficient matrix
0.0501854022	goodness of
0.0501836474	this combination
0.0501835000	the same architecture
0.0501747148	the macroscopic
0.0501721251	the earliest
0.0501710189	provides strong
0.0501690787	clearly show
0.0501606822	the number of steps
0.0501599772	evaluated on several
0.0501561691	no general
0.0501539797	lost in
0.0501511912	subsample of
0.0501489808	such as adam
0.0501485259	the black
0.0501478873	used to tackle
0.0501465738	a new algorithm for
0.0501464696	instances with
0.0501432574	using gps
0.0501365983	for on line
0.0501322735	the required number of
0.0501317730	these technologies
0.0501316589	representation learning with
0.0501303423	not belong
0.0501296348	the scalability of
0.0501292706	that purpose
0.0501276015	the true data
0.0501246977	the causal effect of
0.0501222039	able to provide
0.0501209470	the mirror
0.0501186400	the road
0.0501133425	a one step
0.0501127221	due to missing
0.0501125850	an ever
0.0501098534	architecture with
0.0501077534	not restricted
0.0501022405	the first approach
0.0500989196	content from
0.0500982732	the additive noise
0.0500979602	the trade offs between
0.0500975841	able to automatically
0.0500967177	several experiments
0.0500935459	intention of
0.0500933136	and show empirically
0.0500926498	or fully
0.0500883851	many algorithms
0.0500869862	a novel model
0.0500840733	an estimated
0.0500810709	two datasets
0.0500805363	a hidden markov
0.0500800739	the high order
0.0500800216	two representative
0.0500742607	an inference
0.0500631563	the gold
0.0500628825	between views
0.0500601337	i \
0.0500582062	the price of
0.0500538522	claim to
0.0500538522	granularity of
0.0500485154	work under
0.0500471634	the high frequency
0.0500456960	the alphabet
0.0500454135	drops in
0.0500424025	by progressively
0.0500417170	the precise
0.0500406902	most state of
0.0500402266	a moment
0.0500331844	also leverage
0.0500304375	convergence guarantee for
0.0500303217	any task
0.0500286447	a sub linear
0.0500229288	some fundamental
0.0500222071	an efficient online
0.0500209708	the quantization
0.0500198094	a feature space
0.0500179519	the author
0.0500179519	the simplex
0.0500138470	parametric model for
0.0500123852	to time series data
0.0500091344	the basis
0.0500070158	the reliability of
0.0500069689	the quadratic
0.0500055633	functionality of
0.0500047358	this means
0.0500031764	a number of benchmark
0.0500027630	various clustering
0.0499945626	sampling based on
0.0499943667	patterns into
0.0499916129	the feature distribution
0.0499887220	accuracy at
0.0499881352	equation with
0.0499860535	a specially
0.0499842585	the wide applicability
0.0499830365	each target
0.0499798609	target domain by
0.0499777550	common challenge in
0.0499756088	does not use
0.0499721079	able to establish
0.0499710128	responses from
0.0499699388	or column
0.0499655017	no efficient
0.0499646364	upon existing
0.0499642098	to shrink
0.0499629761	such as linear
0.0499628206	a well
0.0499592871	in terms of total
0.0499570520	to encounter
0.0499391586	the outputs of
0.0499355872	the area of
0.0499340549	to advance
0.0499329717	an essential part
0.0499317738	the second one
0.0499250514	the firm
0.0499228564	both real and simulated
0.0499221792	a first order stationary
0.0499217748	with at least
0.0499179519	the incoming
0.0499178223	monotonicity of
0.0499166204	in bioinformatics
0.0499085618	a general theoretical
0.0499080377	in part due to
0.0499051480	the expectation
0.0498999266	the safety
0.0498968863	available data sets
0.0498962343	to learn effective
0.0498895160	created in
0.0498823481	a transport
0.0498766069	stationary point in
0.0498764334	regularized m
0.0498748700	all settings
0.0498719284	constants of
0.0498686841	used in modern
0.0498672249	established in
0.0498667888	such as node classification
0.0498663111	causal structure of
0.0498650044	work with
0.0498627819	variable selection for
0.0498598565	vertices with
0.0498582329	optimization for
0.0498580269	of different types
0.0498569531	two novel
0.0498561403	the logarithm
0.0498537396	the degrees of freedom
0.0498525982	identified from
0.0498520992	^ 5 \
0.0498481892	the row and column
0.0498475582	a tutorial on
0.0498434555	against several
0.0498425564	spectral norm of
0.0498420305	possible to recover
0.0498328997	the one dimensional
0.0498324316	many settings
0.0498209456	from streaming
0.0498193209	in various fields
0.0498192839	both scalable
0.0498188466	the generative adversarial
0.0498151613	the log loss
0.0498151048	breakthrough in
0.0498130845	the requirement
0.0498121707	methodology to
0.0498114429	the eye
0.0497998863	on real
0.0497988718	the vc dimension of
0.0497976653	conducted with
0.0497943261	the class labels
0.0497917718	by actively
0.0497891098	problematic in
0.0497868174	the best overall
0.0497811786	between exploration and exploitation
0.0497808828	counterparts in
0.0497803086	the thresholding
0.0497729201	estimated with
0.0497646962	the selection of
0.0497636130	nonparametric method for
0.0497605997	a measure of uncertainty
0.0497603277	the relaxation
0.0497568012	a limiting
0.0497527772	an increasingly
0.0497516311	the mnist and cifar 10
0.0497497156	possible applications
0.0497497156	several architectures
0.0497486040	the resulting optimization
0.0497485435	above by
0.0497470021	manifold structure of
0.0497448676	\ leq k \
0.0497437633	across users
0.0497363958	a new hybrid
0.0497359904	not only from
0.0497340656	individuals from
0.0497326157	the uncorrupted
0.0497265686	least squares support
0.0497264734	also require
0.0497222361	under sparsity
0.0497215915	an o
0.0497154864	models trained
0.0497135612	a mix of
0.0497124634	also proposed
0.0497077284	accuracies on
0.0497064859	in order to select
0.0497042804	the fake
0.0497018990	parameters than
0.0496970439	from unlabelled
0.0496966698	very often
0.0496893334	a machine learning approach to
0.0496879542	\ m
0.0496873597	objectives for
0.0496834276	three different datasets
0.0496825427	based algorithms for
0.0496824621	linearly in
0.0496816096	novel technique
0.0496785581	via extensive
0.0496728353	for training machine
0.0496711204	loss over
0.0496693212	distributions within
0.0496630190	known results
0.0496626432	a regularization
0.0496622060	the body
0.0496577511	opinions of
0.0496546197	a tedious
0.0496545888	take on
0.0496543979	rather than using
0.0496541521	the imbalance
0.0496535138	the kinetic
0.0496526266	same distribution
0.0496513325	special structure of
0.0496484447	the iid
0.0496465139	community detection for
0.0496443073	also quantify
0.0496408932	an alternative framework
0.0496368219	use of machine learning
0.0496312066	for explaining
0.0496282010	analysis to show
0.0496279094	a category
0.0496223747	act in
0.0496206226	the depth
0.0496163322	pathways for
0.0496143564	extensive evaluation of
0.0496138313	the ladder
0.0496125979	common set of
0.0496114515	the conditional expectation
0.0496032330	provided as
0.0496007337	$ 100 \
0.0495977729	all levels
0.0495954828	some fixed
0.0495944260	impractical in
0.0495941355	novel architectures
0.0495935955	the constraint
0.0495905353	the small data
0.0495895691	the success of deep
0.0495886101	critical applications such as
0.0495875134	the original feature
0.0495865153	a common problem
0.0495846186	the chaotic
0.0495820619	encodings of
0.0495766397	simple approach to
0.0495761478	the problem of clustering
0.0495759517	$ \ beta \
0.0495730035	the introduced
0.0495716733	some challenges
0.0495716698	an impact
0.0495714950	in many application
0.0495628162	for modeling
0.0495593759	important part of
0.0495547239	contain missing
0.0495535993	in order to apply
0.0495513736	key problem in
0.0495505792	on citation
0.0495502299	effects from
0.0495476062	packages in
0.0495218676	scenario in
0.0495146875	between different classes
0.0495138839	over others
0.0495087777	the minimum distance
0.0495068032	the data structure
0.0495054646	in such settings
0.0495048475	an idea
0.0495012735	evolves in
0.0495000738	an asymptotically
0.0494983134	distributions under
0.0494978479	created using
0.0494977149	this problem setting
0.0494920644	a variety of datasets
0.0494912777	known to suffer from
0.0494896208	a serious problem
0.0494886882	the first known
0.0494766579	deletion of
0.0494758589	the energy distance
0.0494751125	the receptive
0.0494731174	the fractal
0.0494722261	a stochastic variant of
0.0494716469	the building blocks
0.0494712955	key component in
0.0494709457	videos from
0.0494706591	used within
0.0494691679	extract more
0.0494686714	further derive
0.0494679303	capability for
0.0494661412	capability to
0.0494655488	and eventually
0.0494638302	a representation learning
0.0494578184	this definition
0.0494519506	function for
0.0494461812	numerically show
0.0494458077	both numerical
0.0494450715	signature of
0.0494427741	to privacy concerns
0.0494417255	the platform
0.0494387571	the integer
0.0494377345	two years
0.0494370477	equivariant to
0.0494344971	provides more
0.0494342901	compression via
0.0494292561	these benefits
0.0494292461	poorly due to
0.0494291752	evolve in
0.0494286528	each part
0.0494254105	the detection of
0.0494247123	suboptimality of
0.0494203207	a two layer neural
0.0494144156	novel theoretical
0.0494106592	in different contexts
0.0494080113	orthogonality of
0.0494071869	involved with
0.0494071869	considerations for
0.0494061812	costly or
0.0494039408	for capturing
0.0494026150	the actor
0.0494014234	many different
0.0494005147	given rise
0.0494004394	widely used as
0.0493952624	optimal rate of
0.0493772043	in off policy learning
0.0493769159	non linear models
0.0493753463	models outperform
0.0493684885	open question of
0.0493675471	learned under
0.0493674602	the energy efficiency
0.0493637552	need not
0.0493630691	a cancer
0.0493630448	the computer
0.0493618225	decision boundaries of
0.0493613114	the missing
0.0493579827	accurate predictions for
0.0493568715	therefore introduce
0.0493562344	concern in
0.0493544840	in reproducing kernel
0.0493526398	not based on
0.0493519904	analysis via
0.0493507594	many learning tasks
0.0493505526	a multitask
0.0493456063	more robust to
0.0493403332	the horizon
0.0493376702	the multilayer
0.0493360804	the nonconvexity
0.0493357630	a lack of
0.0493332759	training system
0.0493326720	prior distribution of
0.0493306162	performance as compared to
0.0493219069	the exponent
0.0493208617	a sample complexity
0.0493205917	the recently developed
0.0493177295	the generative process
0.0493150014	this theory
0.0493105548	the unregularized
0.0493069987	classifiers under
0.0493038345	different applications
0.0493020749	for choosing
0.0492951417	for learning node
0.0492920019	with other state of
0.0492836601	a visual
0.0492785334	for download
0.0492731378	inconsistency of
0.0492696785	speech from
0.0492693933	to abstract
0.0492681230	years due to
0.0492663827	to motivate
0.0492612239	the case of gaussian
0.0492582503	a novel regularization
0.0492522786	an essential part of
0.0492518202	bayesian non
0.0492516357	stationarity in
0.0492485413	this work studies
0.0492449510	a dependence
0.0492445532	many complex
0.0492445241	the single task
0.0492438882	the codebook
0.0492424307	the noiseless
0.0492423644	symmetry in
0.0492401005	the regression problem
0.0492388248	cause from
0.0492277262	the peak
0.0492264088	and identically distributed
0.0492222876	\ sqrt h
0.0492220957	of linear equations
0.0492219002	defined using
0.0492196586	a distinctive
0.0492155120	attention over
0.0492129923	further analysis
0.0492080269	used to reduce
0.0492065661	and mrna
0.0492048577	classifiers by
0.0492031411	learn useful
0.0491993802	not scale
0.0491981979	a pixel
0.0491980282	the nonzero
0.0491956539	also outperform
0.0491947791	the conditional value at
0.0491918832	and therefore
0.0491912516	a seemingly
0.0491878113	a controller
0.0491858035	recorded in
0.0491847776	the softmax
0.0491845618	non stationarity of
0.0491843557	way to measure
0.0491789080	very large data
0.0491778915	the auxiliary
0.0491772744	more consistent
0.0491742907	such as autonomous
0.0491696252	backpropagation with
0.0491685932	for assigning
0.0491683895	the heavy
0.0491660374	more general problem
0.0491658033	the origin of
0.0491649485	especially on
0.0491567915	scenarios such as
0.0491554870	complex ones
0.0491548770	in two stages
0.0491515526	a feature vector
0.0491467058	compared with two
0.0491450353	this improvement
0.0491448916	the proposal
0.0491399373	building block in
0.0491391296	first learn
0.0491372459	represent one
0.0491352735	effective solution to
0.0491328945	not only in
0.0491308837	by at least
0.0491297365	learning strategy for
0.0491296348	the shape of
0.0491260325	devices such as
0.0491232424	from various domains
0.0491182543	just as
0.0491177048	new efficient
0.0491174074	a proxy for
0.0491158030	activation function for
0.0491157675	recent work by
0.0491147563	then study
0.0491147497	metric to
0.0491112138	then exploit
0.0491107675	as to minimize
0.0491065416	different classifiers
0.0491063623	rate for
0.0491044935	the initialization
0.0491007032	various other
0.0490988286	quantified in
0.0490939717	to tolerate
0.0490920272	results on two
0.0490908688	tests with
0.0490908670	the optimal value function
0.0490906244	the flow
0.0490883487	effective way of
0.0490880338	the non private
0.0490867256	a benign
0.0490838772	a new distance
0.0490793789	another method
0.0490751531	the model structure
0.0490738839	just two
0.0490736876	a class of algorithms
0.0490685171	made between
0.0490677748	predictors with
0.0490632091	a hessian
0.0490588523	approaches in terms of
0.0490564537	the great
0.0490535598	not exceed
0.0490483605	of interest for
0.0490452613	instead use
0.0490449716	possible to achieve
0.0490448827	the behaviour
0.0490366553	two new
0.0490352755	model in terms of
0.0490321162	strategy to
0.0490320232	with continuous action
0.0490307140	serve to
0.0490299332	the duration
0.0490297842	an important problem in
0.0490294049	a more complex
0.0490271442	the same regret
0.0490242351	treated in
0.0490220997	a number of methods
0.0490170619	tradeoffs for
0.0490170522	consist of two
0.0490169795	the dimension reduction
0.0490145407	extensive experiments on synthetic and
0.0490046936	such as deep neural networks
0.0490042486	the collected
0.0489989222	a tradeoff
0.0489975895	by enhancing
0.0489933221	tool to
0.0489907174	average number of
0.0489817715	instructions for
0.0489799407	certificates for
0.0489687930	covered in
0.0489677251	in order to estimate
0.0489624612	a maximal
0.0489598614	this bottleneck
0.0489593649	to place
0.0489583357	but also by
0.0489573701	oracle complexity of
0.0489486924	the linear programming
0.0489485843	a large number of samples
0.0489474489	the meaning
0.0489459083	most likely to
0.0489420920	a new training algorithm
0.0489418375	but also in
0.0489415085	able to represent
0.0489411685	a single data
0.0489405176	datasets from different
0.0489376195	this subset
0.0489373502	a mechanical
0.0489344411	the hausdorff
0.0489335895	an efficient approximate
0.0489322263	the good
0.0489280389	performance gains in
0.0489278000	readily used
0.0489216110	from healthy
0.0489201567	exhibited in
0.0489191492	the freedom
0.0489185511	relu networks with
0.0489162186	the recent advances
0.0489160629	provide two
0.0489143857	thus important
0.0489143847	empirical distribution of
0.0489099378	the proposed system
0.0489080540	all input
0.0489021008	$ \ epsilon \ in
0.0489013155	costly to
0.0488992270	some important
0.0488924667	direction for
0.0488879792	for system identification
0.0488828945	and then to
0.0488798707	allowed for
0.0488792847	the distance between
0.0488754888	fitness of
0.0488739968	a radial
0.0488667654	and up to
0.0488658951	model against
0.0488650235	a similarity measure
0.0488646449	the minimum number
0.0488636826	due to limited
0.0488601890	such as weight
0.0488598565	formalism of
0.0488562344	grow in
0.0488516079	many layers
0.0488507523	as special
0.0488482469	shows very
0.0488452944	rate at
0.0488451193	in order to provide
0.0488436314	optimization landscape of
0.0488434136	for deriving
0.0488414327	the number of examples
0.0488360917	the performance gains
0.0488355204	equations with
0.0488336331	the interest
0.0488224637	a norm
0.0488218146	the subject
0.0488212212	of galaxies
0.0488175540	of weights in
0.0488149204	a bidirectional
0.0488136343	communication over
0.0488098281	the first large
0.0488066964	the \ emph
0.0488058459	more predictive
0.0487983142	the simplicity
0.0487947093	the optimal performance
0.0487940210	tuning of
0.0487890237	variable model for
0.0487887599	the usefulness
0.0487883763	appealing for
0.0487863864	a new fast
0.0487822786	a union
0.0487803513	the big data
0.0487799220	error in terms of
0.0487794184	at least as
0.0487773502	the knockoff
0.0487710693	from wearable
0.0487707758	relative performance of
0.0487667230	policy learning with
0.0487651285	constant or
0.0487650195	and more accurate
0.0487633503	only very
0.0487621932	with application to
0.0487583993	employed on
0.0487497439	data contains
0.0487435313	the optimal rates
0.0487381567	algorithms converge to
0.0487362909	the universal approximation
0.0487338867	a large space
0.0487296159	for predicting future
0.0487284995	a pseudo
0.0487268902	experimental evidence of
0.0487264202	good at
0.0487245778	the rise
0.0487173542	operations on
0.0487145464	first time
0.0487139163	backbone of
0.0487125542	from different distributions
0.0487120545	the convex hull of
0.0487083836	the market
0.0487074107	inductive bias of
0.0487056176	across datasets
0.0486970254	the adaptive lasso
0.0486951232	analyzed for
0.0486948926	to trigger
0.0486934204	techniques used
0.0486906733	possible to improve
0.0486905903	the modular
0.0486901918	many previous
0.0486881659	both training and testing
0.0486877984	two scenarios
0.0486828093	the hierarchical dirichlet
0.0486788767	commonly used as
0.0486788319	a novel method for
0.0486785887	innovations in
0.0486710455	stochasticity in
0.0486708100	such as text
0.0486703451	through analyzing
0.0486693366	only known
0.0486660385	the mathematical
0.0486656022	a two sample
0.0486651187	the algorithm requires
0.0486582796	the information content
0.0486554914	both mean
0.0486532211	variable number of
0.0486434592	to suffer
0.0486433403	a new adversarial
0.0486376338	computational complexity as
0.0486365259	the problem at hand
0.0486342578	as measured by
0.0486320819	the success
0.0486301207	more widely
0.0486300683	with convergence guarantees
0.0486294340	over existing state of
0.0486293334	classification without
0.0486291656	often associated with
0.0486289107	the dark
0.0486252017	$ first order
0.0486247148	the toolkit
0.0486226277	done with
0.0486224784	rates of convergence of
0.0486135058	a population of
0.0486135058	the location of
0.0486110323	taken to
0.0486107035	the clean
0.0486096520	any standard
0.0486073817	a general class
0.0485990891	the optimization algorithm
0.0485975734	several applications
0.0485958926	local optimum of
0.0485940937	time during
0.0485932980	infrastructure for
0.0485915002	a powerful framework
0.0485839604	tradeoff in
0.0485835276	often rely on
0.0485825881	vital in
0.0485785363	integration with
0.0485746445	results compared with
0.0485695472	any underlying
0.0485684826	different class
0.0485657883	a pre
0.0485606558	features across
0.0485598808	to rely
0.0485582344	best strategy
0.0485532862	a subgraph
0.0485516837	the context of learning
0.0485453727	other techniques
0.0485453682	the sum
0.0485411555	not only achieves
0.0485386221	a protocol
0.0485365999	for proving
0.0485357090	through comprehensive
0.0485316528	a drift
0.0485306591	without needing to
0.0485286529	a single training
0.0485271469	by producing
0.0485231942	to work
0.0485157055	the undirected
0.0485138127	a covariance
0.0485092479	a forward
0.0485090692	many years
0.0485072911	the path
0.0485063640	a plausible
0.0485031168	not completely
0.0485024473	provided at
0.0484999693	the entanglement
0.0484971857	a forward model
0.0484961669	any new
0.0484953937	two variants
0.0484883249	value at
0.0484845321	sufficient to
0.0484841663	the prior state of
0.0484797218	to open
0.0484773656	faults in
0.0484725490	a simulation
0.0484632455	artifacts in
0.0484618323	the hypercube
0.0484607035	the forward
0.0484575583	method does
0.0484548397	not much
0.0484539687	a new sample
0.0484527157	a selective
0.0484440205	the difference
0.0484391515	possible to obtain
0.0484287386	fashion by
0.0484250618	the information provided
0.0484247148	the iterated
0.0484234966	constructed in
0.0484234864	the discrete nature of
0.0484215559	the ambiguity
0.0484203273	a martingale
0.0484144826	classes such as
0.0484142504	phenomenon in
0.0484115766	a method for estimating
0.0484115433	attack using
0.0484090466	the beginning of
0.0484080540	two benchmark
0.0484073610	for automating
0.0484029088	while obtaining
0.0483982333	cycle of
0.0483972377	but possibly
0.0483960384	feature selection by
0.0483878673	and more complex
0.0483871153	a hierarchical clustering
0.0483824569	the class of
0.0483824569	the level of
0.0483824569	the prediction of
0.0483796348	the spread of
0.0483795932	to turn
0.0483762516	the discount
0.0483747148	the contraction
0.0483711548	the activation functions
0.0483701825	holds in
0.0483676514	the event
0.0483666603	many real
0.0483622134	$ 3 \
0.0483617095	the space of probability measures
0.0483614449	used across
0.0483614324	the amount
0.0483599921	allowing to
0.0483586505	a joint distribution
0.0483577236	the second moment of
0.0483558402	error with respect to
0.0483490857	the first provably
0.0483473761	y \
0.0483443179	causes for
0.0483441355	give examples
0.0483403646	such as time series
0.0483378805	then define
0.0483338949	better than previous
0.0483337439	the loss of
0.0483210266	the projected gradient
0.0483206591	a customer
0.0483189590	generalizing from
0.0483159592	only applicable
0.0483127975	particular to
0.0483127111	computationally expensive to
0.0483102578	with good generalization
0.0483057151	the sole
0.0483026863	the source data
0.0483026172	but typically
0.0483014509	to search for
0.0482963763	central to many
0.0482959757	the major challenges
0.0482940835	tested by
0.0482916066	work only
0.0482898260	the same computational
0.0482868317	on seven
0.0482839102	a one to one
0.0482818246	marginal distributions of
0.0482800677	the assumption of
0.0482796499	topic in
0.0482781989	inefficient in
0.0482731378	strings of
0.0482684644	a variety of benchmarks
0.0482677795	a robotic
0.0482668925	the mini
0.0482667796	between theory and practice
0.0482629265	a sophisticated
0.0482601918	preferred to
0.0482584592	and asymptotically
0.0482549430	phenomena in
0.0482525804	proposed method against
0.0482496936	way to learn
0.0482489216	the optimal strategy
0.0482481688	meaning of
0.0482428274	a partial
0.0482417170	the library
0.0482414581	and carefully
0.0482400668	these behaviors
0.0482398065	to make accurate
0.0482394570	the intent
0.0482357146	to name
0.0482327909	way to solve
0.0482304169	the patient's
0.0482294697	several advantages over
0.0482265947	a database
0.0482238223	the time frequency
0.0482224601	required at
0.0482219098	such as logistic
0.0482212085	learning tasks such as
0.0482149114	annotations from
0.0482146296	exactly or
0.0482121999	a mechanism
0.0482103512	the adversarial perturbation
0.0482102437	do better
0.0482094130	from others
0.0482052316	loss function used
0.0482036994	onset of
0.0482031131	standard methods for
0.0482001986	the same network
0.0481962337	the sm
0.0481900136	made to
0.0481891586	a study of
0.0481881373	used to accurately
0.0481879005	often do not
0.0481875843	of words
0.0481845778	the high dimensionality
0.0481840695	the same features
0.0481809470	x \ in
0.0481780100	one group
0.0481777545	over long
0.0481769862	no theoretical
0.0481767981	the local model
0.0481749629	the analysis of
0.0481746916	the energy based
0.0481739968	the concordance
0.0481732030	the surrounding
0.0481713015	the behaviour of
0.0481710035	the elastic
0.0481661139	better than existing
0.0481618361	to frame
0.0481605787	called \
0.0481590740	with others
0.0481589738	the same size
0.0481580447	such as node
0.0481491153	a list of
0.0481477491	the drift
0.0481471345	well known to
0.0481438820	existing results for
0.0481428811	sampling for
0.0481428093	policies from
0.0481395160	character of
0.0481394989	inference under
0.0481387030	several factors
0.0481377417	the number of users
0.0481351679	samples than
0.0481347669	autoencoder for
0.0481344388	then describe
0.0481337805	the diversity
0.0481293632	squares regression with
0.0481273647	to master
0.0481235470	a novel transfer
0.0481234447	a composition
0.0481224093	novel scheme
0.0481218391	the norm of
0.0481199381	suboptimal for
0.0481195810	way to perform
0.0481158757	the resulting graph
0.0481144007	several problems
0.0481083250	a few works
0.0481072574	ambiguity in
0.0481036865	several methods
0.0481036667	deviation of
0.0481010438	this potential
0.0480888436	specific set of
0.0480856704	a graph structure
0.0480812016	the full potential
0.0480809999	accurate models for
0.0480728255	the \ textit
0.0480690708	while considering
0.0480652578	used to efficiently
0.0480630845	the player
0.0480568570	an accurate estimate of
0.0480543364	many research
0.0480539295	reuse of
0.0480535190	any assumptions about
0.0480531618	convenient for
0.0480525391	error bound of
0.0480488350	weeks of
0.0480443014	available for training
0.0480436337	the pruned
0.0480405557	a portfolio
0.0480395148	probability measures on
0.0480393938	still able to
0.0480392427	inappropriate for
0.0480361934	also exhibit
0.0480358700	both players
0.0480330320	the problem of adversarial
0.0480253504	a bag of words
0.0480245989	a natural notion of
0.0480197462	and more flexible
0.0480170962	such as resnet
0.0480168581	mechanisms such as
0.0480150099	schedule for
0.0480055528	singular value of
0.0480053479	the convergence rates
0.0480053458	a transformation
0.0480049293	a correction
0.0480027753	detection problem in
0.0479989222	a modification
0.0479973597	spaces with
0.0479956223	an independence
0.0479951668	a defense
0.0479949397	the compositional structure
0.0479916049	new notion
0.0479910865	savings of
0.0479897027	a novel generative
0.0479896829	on five
0.0479895933	the surrogate loss
0.0479892419	a bounded number
0.0479880887	the statistical learning
0.0479873724	some benchmark
0.0479859392	often leads
0.0479803280	this mechanism
0.0479778425	only samples
0.0479769868	the input sample
0.0479712032	as well as state of
0.0479669928	computational performance of
0.0479649491	noisy observations of
0.0479639638	the posterior distribution of
0.0479630750	summarized in
0.0479629162	the individual level
0.0479539338	ones by
0.0479508398	in particular for
0.0479505184	with time varying
0.0479498856	sparsity at
0.0479487258	the commonly used
0.0479472321	new feature
0.0479470836	a website
0.0479346946	the models trained
0.0479259614	probabilistic inference in
0.0479250720	the amount of computation
0.0479231621	speed up of
0.0479132593	different degrees of
0.0479124394	generalization bound of
0.0479117899	proven for
0.0479095213	the virus
0.0479081974	maxima of
0.0479022182	the existing techniques
0.0479014171	a business
0.0478930102	a single graph
0.0478882970	abstraction for
0.0478876237	complexity compared to
0.0478853512	a high confidence
0.0478798034	tasks related to
0.0478793073	an equally
0.0478788666	a procedure
0.0478744384	doctors in
0.0478728475	$ 1 \
0.0478715046	the requisite
0.0478699413	than current
0.0478668881	any deep
0.0478654715	sources such as
0.0478654197	problem under
0.0478649723	these statistical
0.0478635058	the privacy of
0.0478605079	a physics based
0.0478561209	the model trained
0.0478552934	a latent representation
0.0478536733	several real
0.0478527788	solved for
0.0478519136	a novel gaussian
0.0478512334	the one step
0.0478486033	point processes with
0.0478476603	the use of machine
0.0478447026	the ongoing
0.0478432094	a unified framework for
0.0478412391	of arrival
0.0478412391	a geodesic
0.0478411766	a univariate
0.0478406635	for recommending
0.0478406635	for calibrating
0.0478361353	then used to
0.0478274394	a novel graph
0.0478265405	potential applications in
0.0478260319	a new family
0.0478235690	size and complexity of
0.0478202455	a functional
0.0478199023	at different time
0.0478150736	as side information
0.0478109587	screening for
0.0478106485	autoencoders for
0.0478084460	a transformed
0.0478007507	convex optimization with
0.0477970926	the method proposed
0.0477970836	the sought
0.0477918821	the compatibility
0.0477908940	used to explore
0.0477777545	also studied
0.0477768902	generalized linear models with
0.0477766228	a dimension reduction
0.0477741956	the logistic
0.0477729031	a reasonably
0.0477690013	works for
0.0477627341	a set of binary
0.0477612513	the regression model
0.0477605995	clinical use
0.0477605657	a guide
0.0477548128	all known
0.0477517982	first result
0.0477502015	several variants
0.0477471869	present work
0.0477455529	stream of
0.0477445670	for minimizing
0.0477428058	between source and target
0.0477253773	these new
0.0477176545	in polynomial time
0.0477173722	a characterization
0.0477126945	good local
0.0477121336	analytically show
0.0477107035	the infinite
0.0477105705	most approaches
0.0477102723	data augmentation for
0.0477096720	the trajectory
0.0477096283	the ordinary
0.0477093967	the identification of
0.0476992270	no existing
0.0476984001	these directions
0.0476983046	n ^ 2 \
0.0476967621	counterpart of
0.0476966426	the latent distribution
0.0476958111	a linear programming
0.0476947003	various machine learning
0.0476928978	markov model for
0.0476920266	also applied
0.0476844282	second part of
0.0476777421	comes with theoretical
0.0476742148	proposed methods for
0.0476742148	algorithm results in
0.0476712408	such errors
0.0476709811	between probability distributions
0.0476680044	for simulating
0.0476669356	the analysis shows
0.0476669234	than chance
0.0476636633	this regime
0.0476635284	for interpreting
0.0476599080	models exhibit
0.0476574722	density estimation on
0.0476559976	the optimal rate of convergence
0.0476536196	a longer
0.0476535818	each new
0.0476499266	the regime
0.0476451400	help in
0.0476441783	used to sample
0.0476413312	live in
0.0476386327	gap by
0.0476376408	to purchase
0.0476370321	a simplification
0.0476338262	characterized in
0.0476337805	the interaction
0.0476327771	a monotone
0.0476252719	of neurons
0.0476191722	optimize for
0.0476147010	away from zero
0.0476140419	a deep q network
0.0476138064	some promising
0.0476132041	a method to generate
0.0476110225	then used to train
0.0476106992	effective algorithm for
0.0476093846	help to improve
0.0476071869	mistakes in
0.0476040595	descent for
0.0476031360	then proceed to
0.0476019478	error than
0.0475951661	a platform
0.0475945589	one limitation
0.0475935411	poorly in
0.0475926132	a sum
0.0475912084	a black
0.0475746972	a less
0.0475745249	an image classification
0.0475676487	a subsequent
0.0475668647	a density based
0.0475661119	the original training
0.0475620329	between agents
0.0475585841	do not apply
0.0475554350	model without
0.0475498747	the bulk
0.0475483605	in two different
0.0475465027	a record
0.0475448397	acquired with
0.0475443197	same algorithm
0.0475408261	this region
0.0475378134	the same sample
0.0475372302	a task specific
0.0475364471	the formation of
0.0475339937	inferences from
0.0475325114	model as well as
0.0475298394	the graph representation
0.0475281638	the role
0.0475265352	problem becomes
0.0475261942	systematic approach to
0.0475250406	from six
0.0475223704	a protein
0.0475172923	emerging from
0.0475161190	simulations on
0.0475135127	often called
0.0475127664	good as
0.0475100831	a new loss
0.0475083667	full training
0.0475075222	minutes on
0.0475040909	a chosen
0.0474971888	obtained by using
0.0474909708	bandit problems with
0.0474880027	the globally optimal
0.0474874178	coefficient of
0.0474810580	outcome of
0.0474795383	the first two
0.0474760889	both classical
0.0474750311	an estimation error
0.0474746793	a sound
0.0474734957	universality of
0.0474728894	faced in
0.0474721090	because most
0.0474691749	the episode
0.0474646766	layer at
0.0474627326	the same way
0.0474615748	shift in
0.0474555695	good trade off
0.0474544800	the same convergence
0.0474542850	as part
0.0474503478	networks in order to
0.0474462768	the same task
0.0474406393	functions such as
0.0474405557	the overwhelming
0.0474380282	the mmse
0.0474358978	a novel technique
0.0474315772	unavailable in
0.0474285740	cubic in
0.0474213015	the limit of
0.0474211277	the sparsity constraint
0.0474205469	recovery from
0.0474202455	a block
0.0474192535	same results
0.0474134045	the first efficient
0.0474107320	time series into
0.0474102578	also empirically
0.0474102369	stay in
0.0474085533	the art approaches for
0.0474085401	new algorithmic
0.0474082873	the information gain
0.0474080593	particularly for
0.0474033482	cheap to
0.0474032200	this interpretation
0.0474019231	not robust
0.0474007702	the genome
0.0474001736	on mnist and cifar
0.0473999266	the hybrid
0.0473984273	the resolution of
0.0473929256	a useful tool for
0.0473923935	a fixed set
0.0473907363	samplers for
0.0473858804	and storage complexity
0.0473828107	a multilayer
0.0473812687	inference using
0.0473788579	the stationarity
0.0473647724	the angular
0.0473610102	enough for
0.0473558594	show superior performance
0.0473546834	protection of
0.0473545091	viewpoint of
0.0473519136	a new parameter
0.0473498129	appealing to
0.0473496181	especially in cases
0.0473495509	a specific model
0.0473488801	markers of
0.0473394933	an ad
0.0473392157	a probability
0.0473386145	algorithm in terms of
0.0473383479	a high number
0.0473335042	the first time in
0.0473327148	these theoretical
0.0473326700	in many areas
0.0473277450	requirement on
0.0473242253	not considered
0.0473201220	crucially on
0.0473199820	parameters such as
0.0473122515	popular algorithms for
0.0473117155	these hyperparameters
0.0473083794	changes over
0.0473011839	the image classification
0.0472970261	the geometric properties
0.0472963098	the equivalence
0.0472956714	$ neighborhood of
0.0472946548	by reconstructing
0.0472944143	equilibria of
0.0472935908	$ \ theta \
0.0472916220	or race
0.0472901832	gradients at
0.0472858986	choose to
0.0472848112	a lack of theoretical
0.0472841187	estimators under
0.0472819481	datasets such as
0.0472816137	the north
0.0472806004	the same order
0.0472800677	the limitations of
0.0472793193	a range of tasks
0.0472778363	the classification error
0.0472709766	at finding
0.0472699089	able to efficiently
0.0472697835	by default
0.0472686486	the item
0.0472680149	art algorithms on
0.0472656472	a relation
0.0472641796	the decrease
0.0472619185	a time dependent
0.0472610133	learning guarantees for
0.0472593785	in many nlp
0.0472578790	times better
0.0472575849	not only more
0.0472568877	a robust version
0.0472563117	still not well
0.0472553142	thorough study
0.0472526229	depth of
0.0472516079	many scenarios
0.0472506271	hold with
0.0472497994	both model
0.0472481688	explainability of
0.0472457231	methods often rely on
0.0472437833	the art results in many
0.0472424039	well studied problem in
0.0472414804	generalisation of
0.0472394431	task at
0.0472351201	reduction for
0.0472349368	different feature
0.0472325879	\ subset \
0.0472310015	a much
0.0472296266	identification from
0.0472272264	any distribution
0.0472235556	in many ways
0.0472229006	an effort
0.0472227112	the variational distribution
0.0472188701	seen in
0.0472162316	training without
0.0472156068	the challenging task of
0.0472067623	hidden layers of
0.0472036583	by means
0.0472033623	maintenance of
0.0472021614	over standard
0.0472005523	also produces
0.0471991550	than other state of
0.0471979570	the higher level
0.0471977247	aim of
0.0471968531	data onto
0.0471945376	the out of
0.0471925630	all over
0.0471918023	histogram of
0.0471911611	for training robust
0.0471863221	further identify
0.0471827280	a symbolic
0.0471820619	section of
0.0471782871	via numerical
0.0471771915	armed bandit with
0.0471675630	also often
0.0471665946	the center of
0.0471665691	neural network into
0.0471653491	a distribution over
0.0471641014	found on
0.0471545637	the above problem
0.0471538579	the boolean
0.0471463136	generalize better to
0.0471409300	models in practice
0.0471367461	the follow up
0.0471267200	novel concept
0.0471261104	a multinomial
0.0471245135	thus propose
0.0471206353	a novel measure
0.0471176514	the influence
0.0471160840	first observe
0.0471153091	but less
0.0471137422	need only
0.0471107353	the existing approaches
0.0471098001	this proposal
0.0471030573	a brand
0.0471025139	also allow
0.0471023346	scalability of
0.0471019910	a cellular
0.0471000433	the policy gradient
0.0470991319	the first of
0.0470979866	the spectra
0.0470967177	other existing
0.0470943380	off policy evaluation in
0.0470892750	open problems in
0.0470884462	the leakage
0.0470881236	search space for
0.0470880783	classifiers such as
0.0470876124	anomalies from
0.0470859808	biomarkers for
0.0470843469	an area under
0.0470804782	do well
0.0470763710	k ^ 2 \
0.0470742703	an r package for
0.0470663429	the derivative
0.0470631823	acquired in
0.0470613377	for compressing
0.0470607316	people with
0.0470606559	while at
0.0470586324	supervised training of
0.0470545545	the graphon
0.0470512291	place in
0.0470505777	classifier from
0.0470456960	the readout
0.0470426527	customized for
0.0470406330	inference framework for
0.0470394570	the undesired
0.0470381236	high variance in
0.0470369821	and greatly
0.0470324835	developed from
0.0470262322	the proposed optimization
0.0470240016	enables more
0.0470234201	the projection
0.0470216698	respect to state of
0.0470177129	and thereby
0.0470093692	randomized value
0.0470065346	posteriors for
0.0470028505	to differentiate between
0.0470014585	$ \ sqrt t
0.0470008109	separated in
0.0469995276	rate under
0.0469949334	the function space
0.0469867725	speed and accuracy of
0.0469848743	and better generalization
0.0469815787	excellent performance of
0.0469815647	a knowledge graph
0.0469790484	a variety of machine
0.0469764880	estimator over
0.0469763826	classifier without
0.0469734905	the decision rule
0.0469726175	promise of
0.0469722900	the ability to perform
0.0469711691	used to discover
0.0469680456	in terms of performance
0.0469678849	the same type
0.0469619280	found via
0.0469573667	interface with
0.0469558986	the local structure
0.0469547654	widely used in various
0.0469539908	the same input
0.0469534178	the first deep
0.0469522157	empirical investigation of
0.0469472234	position of
0.0469419642	the converted
0.0469401329	a new end to end
0.0469388175	addressed with
0.0469334212	a streaming
0.0469327771	a frequentist
0.0469325103	for reducing
0.0469315563	this new framework
0.0469314276	scaled to
0.0469256896	a similarity
0.0469248520	gains on
0.0469226674	both faster
0.0469218092	the art for
0.0469216733	also theoretically
0.0469207096	generative process of
0.0469199192	this in mind
0.0469185641	suggested in
0.0469170876	the predictive accuracy
0.0469170752	a web
0.0469117141	the domain experts
0.0469095213	a movie
0.0469054472	the art performance in many
0.0469035116	$ approximation to
0.0469019910	a universally
0.0469007890	to go beyond
0.0468950932	those tasks
0.0468946710	to trace
0.0468933994	classifier with
0.0468924298	the smart
0.0468908920	over conventional
0.0468878063	of chemical space
0.0468860917	one line
0.0468837805	the diffusion
0.0468835843	the foundation
0.0468808765	the clinic
0.0468769229	to understand whether
0.0468760889	or expensive
0.0468736064	need to build
0.0468722063	in today's
0.0468706226	the partial
0.0468694370	the supports of
0.0468657833	convolutional networks with
0.0468656503	between pairs of
0.0468635058	the similarity of
0.0468607035	the tradeoff
0.0468578297	a distinct
0.0468575456	deep understanding of
0.0468572793	the number of input
0.0468564184	the full model
0.0468555759	structure between
0.0468502031	not only improve
0.0468490891	the training examples
0.0468467457	used to gain
0.0468448072	performance under
0.0468368909	a large set
0.0468368190	than 4
0.0468359688	an alternative method
0.0468355739	the first study
0.0468350849	all state of
0.0468349691	expertise of
0.0468312392	graph structure of
0.0468305001	each base
0.0468272608	developed at
0.0468226548	a network's
0.0468212063	extended with
0.0468179642	the problem of low
0.0468142861	using just
0.0468056856	the proximal
0.0468040601	on three standard
0.0468004471	the sampled
0.0468004471	the measurement
0.0467997959	future research in
0.0467966287	decision processes with
0.0467919136	a new gradient
0.0467894372	a sensible
0.0467893515	error rate on
0.0467884226	a novel theoretical
0.0467875360	used to design
0.0467869679	intuition for
0.0467859856	latent variable models for
0.0467841120	a very large number
0.0467824293	any class
0.0467818219	compared with several
0.0467794764	a novel concept
0.0467737070	a reservoir
0.0467702218	for defending
0.0467654259	equilibria in
0.0467651983	decide to
0.0467651333	ensembles with
0.0467597908	two distributions
0.0467508031	a malicious
0.0467489967	these new methods
0.0467483059	for achieving
0.0467481731	of great interest
0.0467458555	such behavior
0.0467431762	the generalization capabilities
0.0467410981	lengths of
0.0467406332	experimental design for
0.0467292440	the replica
0.0467234957	identities of
0.0467219874	the gene
0.0467203671	questions such as
0.0467187416	for extracting
0.0467187370	a likelihood free
0.0467151114	the mle
0.0467137697	able to do
0.0467087779	generalization performance on
0.0467073667	generalizable to
0.0467072024	key challenges of
0.0467042804	the breast
0.0467039935	to enable efficient
0.0467035970	several properties
0.0467025725	the dependency structure
0.0467025404	rule for
0.0466944275	performance while
0.0466899870	valuable to
0.0466881461	consider three
0.0466827771	a conservative
0.0466818442	disentangled representations of
0.0466785887	falls in
0.0466785887	names in
0.0466762462	a flurry of
0.0466752671	pass over
0.0466739205	the computational cost of
0.0466641368	these powerful
0.0466631585	top 1 accuracy of
0.0466610736	do not take into
0.0466584751	the inability
0.0466543538	descent algorithms for
0.0466522707	robustness via
0.0466460748	shown to lead to
0.0466448465	stated in
0.0466437895	unrealistic in
0.0466419872	a homogeneous
0.0466394869	on three challenging
0.0466391079	hold in
0.0466379804	the intrinsic dimension of
0.0466295953	different sampling
0.0466291033	a clinical
0.0466290734	a given network
0.0466247148	the company
0.0466239808	series into
0.0466226480	a simple yet
0.0466200053	the high cost of
0.0466191090	vulnerabilities in
0.0466179480	a sharper
0.0466127011	even at
0.0466092519	not better
0.0466087554	a linear relationship
0.0466071869	actors in
0.0466053155	quite different from
0.0465987707	to remain
0.0465978682	forecasting via
0.0465969935	also need
0.0465948363	much time
0.0465906843	also improve
0.0465905547	dynamics from
0.0465833129	the great success
0.0465821406	the speaker
0.0465738848	inverse problems such as
0.0465727903	the consumer
0.0465721951	fast convergence of
0.0465703169	these kinds
0.0465667476	takes as
0.0465656707	a family of algorithms
0.0465623747	element in
0.0465608995	used to facilitate
0.0465568734	without performing
0.0465506001	in order to predict
0.0465503916	recent methods for
0.0465484633	to achieve significant
0.0465451838	any training data
0.0465433006	resulting models
0.0465423294	in two dimensions
0.0465318925	the assessment
0.0465285106	part by
0.0465249086	the sampling distribution
0.0465241956	the dynamical
0.0465215441	radius of
0.0465214794	any possible
0.0465185887	tedious and
0.0465170692	a data sample
0.0465157623	than simply
0.0465148901	these items
0.0465133275	also yield
0.0465072911	the product
0.0465070017	with limited data
0.0465069630	a new framework
0.0465067334	these losses
0.0464991300	a bootstrap
0.0464977888	the number of communication
0.0464975030	taxonomy for
0.0464968266	expensive or
0.0464953392	overall system
0.0464950985	studies on several
0.0464909715	other architectures
0.0464861979	learning approach using
0.0464832353	the same for
0.0464808794	models such as deep
0.0464790633	interest for
0.0464737690	the sliced
0.0464725490	a temporal
0.0464720314	embeddings via
0.0464705439	to scale to
0.0464703624	to arise
0.0464690657	to offer
0.0464680456	in terms of classification
0.0464645687	this investigation
0.0464576219	without significant
0.0464573800	surge of interest in
0.0464547951	a mild
0.0464538333	to over fitting
0.0464519853	sketching for
0.0464515678	improved performance of
0.0464511583	to improve classification
0.0464486505	skills from
0.0464465999	the expressivity
0.0464415757	used in real
0.0464384770	practical algorithm for
0.0464384770	practical method for
0.0464380644	a one class
0.0464375798	able to significantly
0.0464362322	a near
0.0464358895	the ability to adapt
0.0464347718	such as convolutional
0.0464278600	often considered
0.0464276279	minima in
0.0464208769	a perspective
0.0464135359	a novel way to
0.0464090466	different sets of
0.0464082246	for comparing
0.0464071058	the evaluation of
0.0464065535	period of
0.0464054125	the false
0.0464043940	the landscape
0.0464036302	dynamics model for
0.0464005718	the computational effort
0.0463962678	coarse to
0.0463958480	as well as with
0.0463951136	to query
0.0463948363	all sub
0.0463944617	robust version of
0.0463927882	a novel model based
0.0463884057	in terms of time and
0.0463874667	the dependent variable
0.0463836851	the implicit bias
0.0463821403	different variables
0.0463776859	serves to
0.0463775612	to change
0.0463770257	risk over
0.0463768616	for very large
0.0463747148	the prescribed
0.0463744851	the resolution
0.0463739577	a signal
0.0463725912	the insight
0.0463650044	to consider
0.0463643638	rate compared to
0.0463626174	better on
0.0463586103	able to find
0.0463572917	indices for
0.0463531749	the knowledge of
0.0463522440	estimators such as
0.0463492266	prediction by
0.0463489196	documents with
0.0463485237	a significant fraction of
0.0463461497	fundamental challenge in
0.0463452001	a combination
0.0463449510	a physics
0.0463403332	the belief
0.0463394571	competitive results in
0.0463339153	a common method
0.0463314253	the latent state
0.0463310998	a novel loss
0.0463272608	learned at
0.0463211317	across space
0.0463199820	information such as
0.0463189350	ineffective in
0.0463105295	model performs better than
0.0463097802	the same as
0.0463097414	range of possible
0.0463067620	selection methods for
0.0463055389	very useful for
0.0463046722	no algorithm
0.0463034124	utility while
0.0463002597	also identified
0.0462974822	community due
0.0462955773	the pseudoinverse
0.0462948926	the buyer
0.0462913071	this optimization problem
0.0462893961	automatically from
0.0462892561	this concern
0.0462853658	model via
0.0462846341	the aspect
0.0462812610	specification for
0.0462774957	to scale to large
0.0462765078	remains challenging to
0.0462764963	the potential to
0.0462734336	supervised learning under
0.0462709436	$ \ rho \
0.0462686697	the low noise
0.0462674960	\ alpha \
0.0462598657	deployed for
0.0462581043	a gradient boosting
0.0462534032	an unsupervised method
0.0462471776	deployed to
0.0462450066	statistical test for
0.0462449780	both linear and nonlinear
0.0462445624	the weight matrix
0.0462403411	the quantification
0.0462354992	a new policy
0.0462351475	error between
0.0462330249	proposed method with
0.0462293355	a range of applications
0.0462235934	this preliminary
0.0462226622	these data sets
0.0462160057	two publicly
0.0462115272	particularly suitable for
0.0462093208	on cifar 10 and
0.0462057937	linearly on
0.0462016479	the rapid development
0.0462005523	also captures
0.0461986934	studied from
0.0461985966	best suited for
0.0461966914	the same domain
0.0461948197	the average number of
0.0461926657	a convolution
0.0461891586	the uncertainty of
0.0461881713	of paramount
0.0461854388	analysis leads to
0.0461833440	the clear
0.0461786391	by classifying
0.0461785271	the creation of
0.0461784289	deep generative models for
0.0461759991	a measurement
0.0461734408	ratio than
0.0461733953	challenge by
0.0461724239	to divide
0.0461692816	the cutting
0.0461663182	an effective and efficient
0.0461629287	a principled method
0.0461619204	these events
0.0461496824	an agnostic
0.0461480197	a controllable
0.0461476820	the current methods
0.0461472745	attention mechanism to
0.0461420220	y \ in
0.0461349684	in several real world
0.0461337805	the reduced
0.0461335930	two directions
0.0461314338	likelihood models
0.0461277164	for non convex optimization
0.0461261104	the selector
0.0461176514	the meta
0.0461174343	the representational power
0.0461130219	the next best
0.0461108795	the system dynamics
0.0461107035	the covariate
0.0461099921	developed on
0.0461090325	a limit
0.0461081404	the same order of
0.0461068715	two challenging
0.0461067331	models as special cases
0.0460973255	emerge in
0.0460960584	an unknown number
0.0460958480	as well as from
0.0460940383	algorithm to find
0.0460919821	consideration for
0.0460900687	methods designed for
0.0460892185	all prior
0.0460882740	beginning of
0.0460867256	a worker
0.0460859808	problematic for
0.0460847629	naturally from
0.0460821178	the temporal evolution
0.0460808528	struggle in
0.0460796042	many natural
0.0460792692	does not require knowledge
0.0460743215	t ^ \
0.0460724837	alternative approach to
0.0460720123	a logistic regression
0.0460707990	a range of problems
0.0460642498	course of
0.0460635031	any two
0.0460612935	such models in
0.0460573316	the expected number
0.0460572895	approach on several
0.0460547243	necessary in order
0.0460541741	labels per
0.0460506452	as much
0.0460473936	games such as
0.0460445472	often highly
0.0460410981	emerged in
0.0460403655	used for estimating
0.0460331380	on eight
0.0460330073	process via
0.0460298688	as long
0.0460294631	and sometimes
0.0460267937	the stiefel
0.0460258942	the optimal number
0.0460248115	spread of
0.0460224093	three common
0.0460222300	impossible for
0.0460192404	bayesian inference with
0.0460157055	the cover
0.0460147386	a severe
0.0460065903	for two layer neural
0.0460028030	novel insights into
0.0460026530	these generative
0.0460008109	calculated for
0.0459989222	a concave
0.0459956997	able to deal with
0.0459944674	the major challenge
0.0459937056	a large range
0.0459910355	non linear state
0.0459837674	a new procedure
0.0459827855	fast rates of
0.0459801448	used to update
0.0459779119	accurate predictions of
0.0459775427	block model for
0.0459727613	the art methods based on
0.0459696779	knowledge from one
0.0459663824	the number of constraints
0.0459606410	a deep generative model for
0.0459592837	information along
0.0459589967	and in turn
0.0459582597	the original high
0.0459579246	key role in
0.0459578545	the candidate
0.0459556108	bayesian networks with
0.0459516388	to improve prediction
0.0459504085	the true number
0.0459488260	used in signal
0.0459472512	regression models with
0.0459454369	the feature maps
0.0459417925	the description
0.0459412670	to lead
0.0459402096	the convex hull
0.0459388302	the latent features
0.0459383817	the rejection
0.0459376130	the art methods such as
0.0459369813	tensor networks for
0.0459260313	enhanced with
0.0459232781	approach gives
0.0459111353	do not make
0.0459083073	to learn complex
0.0459077531	footprint of
0.0459068150	the importance sampling
0.0459067568	algorithm designed for
0.0459053152	way to capture
0.0459045424	also achieve
0.0459026699	mainly on
0.0459003408	the multivariate case
0.0458962743	sample efficiency in
0.0458936326	susceptibility of
0.0458907417	internal structure of
0.0458809625	random variable with
0.0458806498	on hypergraphs
0.0458785172	the resulting network
0.0458767598	the same space
0.0458761254	many cases
0.0458737533	presented on
0.0458725864	as well as other
0.0458646926	with respect to input
0.0458598565	relaxed to
0.0458587930	differs in
0.0458567534	a goal
0.0458510300	gradient algorithms for
0.0458498729	a method of
0.0458498729	the problem as
0.0458496212	in terms of memory
0.0458483993	manner by
0.0458417925	the intelligent
0.0458417925	the transportation
0.0458407774	of molecules
0.0458389611	stack of
0.0458366251	ensemble approach to
0.0458330626	both deterministic
0.0458306348	an auc
0.0458301515	a subject
0.0458276527	matched with
0.0458274242	a normalized
0.0458226748	a novel joint
0.0458193620	only utilize
0.0458181044	storage of
0.0458141515	these two techniques
0.0458115879	a framework called
0.0458102336	often achieve
0.0458097155	relations from
0.0458068529	first work
0.0458065358	adoption in
0.0458014792	n ^ \
0.0458003909	new minimax
0.0457954762	learning over
0.0457912501	in terms of sample
0.0457905277	classification results on
0.0457892750	the nuclear
0.0457867376	possible without
0.0457849175	the error rate
0.0457829239	the quality of generated
0.0457820808	the restricted boltzmann
0.0457664350	the adopted
0.0457639637	k means with
0.0457612513	the convolutional layers
0.0457607951	the general setting
0.0457603203	a mapping
0.0457541912	only use
0.0457471534	theoretical guarantee of
0.0457408437	$ improvement
0.0457401155	optimal policies for
0.0457386991	the minimax optimal
0.0457324222	an euclidean
0.0457274592	extensively in
0.0457260514	novel criterion
0.0457256406	supervised learning via
0.0457256380	a larger number of
0.0457205691	analytics system
0.0457203064	requires very
0.0457191532	shape of
0.0457162391	a slower
0.0457146655	a highly effective
0.0457143119	a leave one
0.0457107035	the unit
0.0457070310	to resort
0.0457065787	the work on
0.0457048472	importance sampling for
0.0457046522	grows in
0.0457039264	these additional
0.0457025487	a support vector
0.0456961177	nearly linear in
0.0456891624	samples across
0.0456872157	adopted as
0.0456857413	a natural generalization of
0.0456855609	resilience of
0.0456820044	feature representation of
0.0456812250	computational efficiency of
0.0456808605	active learning for
0.0456749837	to violate
0.0456723236	by ~
0.0456717429	by balancing
0.0456710455	occur with
0.0456673990	vaes with
0.0456654190	the method's
0.0456631446	applied over
0.0456630072	fit to
0.0456593660	structured data such as
0.0456551502	a line
0.0456542543	not included
0.0456508784	the fmri
0.0456501345	the learnability
0.0456476111	bandit models
0.0456475710	critically on
0.0456469480	a neighborhood
0.0456467133	recipe to
0.0456411572	analysed in
0.0456411572	obstacle in
0.0456411518	the expression
0.0456408528	solvable in
0.0456385127	not generally
0.0456366079	novel adaptive
0.0456339247	a hypothesis
0.0456339177	the central limit
0.0456337805	the concept
0.0456323157	a trust
0.0456285832	indices of
0.0456279610	appropriate for
0.0456188316	over wireless
0.0456120586	also generalizes
0.0456112257	local minimum of
0.0456105537	layer by
0.0456062307	o s
0.0456007046	linear transformations of
0.0455985401	often expensive
0.0455950130	on four datasets
0.0455926376	also test
0.0455907378	efforts on
0.0455897784	distributions such as
0.0455877278	such as denoising
0.0455787521	found using
0.0455737825	the cluster labels
0.0455726704	the poisoned
0.0455720565	an inherently
0.0455711864	approaches still
0.0455687315	value problem
0.0455680890	both theoretical
0.0455676487	a compositional
0.0455640759	therefore important
0.0455631547	a large family
0.0455606595	the final performance
0.0455598001	an interaction
0.0455582082	advantageous in
0.0455578733	exploited in
0.0455572676	into two
0.0455413478	a new supervised
0.0455393078	behavior under
0.0455388536	this sense
0.0455367018	a restricted boltzmann
0.0455357645	rest of
0.0455356423	a price
0.0455319839	effort by
0.0455270190	successes of
0.0455259471	useful representation
0.0455236963	exactly one
0.0455221809	a change
0.0455209153	the purpose
0.0455201587	a new research
0.0455188869	does not belong to
0.0455187311	simulated data from
0.0455183994	mechanism to
0.0455182223	dataset into
0.0455142517	not relevant
0.0455095213	the foreground
0.0455060631	the fast fourier
0.0455043073	an added
0.0454944593	by ignoring
0.0454814174	expectation of
0.0454808436	measures such as
0.0454799887	$ approximation for
0.0454772119	algorithm in order to
0.0454723850	enough data
0.0454696564	parameter estimation with
0.0454669832	time event
0.0454648407	such as traffic
0.0454638582	a tremendous
0.0454533387	a smaller number of
0.0454533385	discoveries in
0.0454482233	increasingly important to
0.0454474364	the first case
0.0454467906	the most general
0.0454454522	the number of linear
0.0454452231	superset of
0.0454434434	the spiked
0.0454381735	superior performance for
0.0454373258	to allow for
0.0454360600	the divide
0.0454352124	many data analysis
0.0454336434	the corresponding optimization problem
0.0454306168	a motivating
0.0454248936	important features of
0.0454223954	a different set of
0.0454213015	the result of
0.0454208833	discrete nature of
0.0454192535	same performance
0.0454185875	magnitude compared to
0.0454184773	^ \ top \
0.0454105554	factors of variation in
0.0454099413	most similar
0.0454086738	+ + and
0.0454024487	using fewer
0.0454023627	the planner
0.0453939593	higher accuracy on
0.0453934167	small perturbations of
0.0453920905	data samples from
0.0453911500	manifolds with
0.0453887030	many relevant
0.0453853312	created with
0.0453848839	to model data
0.0453842386	the subsampled
0.0453837805	the penalty
0.0453796348	the safety of
0.0453791441	well against
0.0453779583	\ kappa \
0.0453764215	the use of machine learning
0.0453737569	to render
0.0453717344	a form of
0.0453713501	adds to
0.0453706575	the same set
0.0453689196	the experiment results
0.0453688616	the source model
0.0453681459	several standard
0.0453681183	modified by
0.0453676919	to small adversarial
0.0453674364	the following key
0.0453638418	the average case
0.0453621909	based algorithm with
0.0453610604	via deep reinforcement
0.0453592799	grouping of
0.0453494962	activity from
0.0453491511	part due to
0.0453451232	specialized for
0.0453417925	the weather
0.0453415916	the prior information
0.0453409547	practical applications such as
0.0453390214	with several state of
0.0453278600	all pairwise
0.0453271472	channels with
0.0453245726	a gold
0.0453234408	total time
0.0453176981	categorical or
0.0453171962	also suffer
0.0453166173	the value
0.0453160319	each function
0.0453159215	reported on
0.0453149965	$ 1 \ sqrt n
0.0453138191	a conceptual
0.0453137408	the same statistical
0.0453111369	by repeatedly
0.0453105548	the preceding
0.0453063472	the traditional methods
0.0453030401	the recent success of
0.0453017757	does not provide
0.0453011709	the art among
0.0453000304	a federated learning
0.0452994754	calculated in
0.0452978909	previous methods for
0.0452974284	eigenvalue of
0.0452937448	a given number
0.0452930221	role in many
0.0452925262	the same set of
0.0452888402	the function values
0.0452885951	drivers of
0.0452885948	various components
0.0452833743	the underlying generative
0.0452819307	the optimal network
0.0452798475	a gradient
0.0452778269	only at
0.0452764208	the latent factors
0.0452748584	approach allows for
0.0452600681	the method of choice
0.0452562835	additionally show
0.0452545637	the whole network
0.0452542145	with autism
0.0452490983	some practical
0.0452369139	to document
0.0452359969	not converge
0.0452321821	the encoding of
0.0452264734	any set
0.0452222381	a number of synthetic
0.0452201805	for gaining
0.0452161692	a cubic
0.0452137276	a very flexible
0.0452131311	generated at
0.0452077004	non stationarity in
0.0452060718	first introduced
0.0452008194	paradigm of
0.0452002639	and more general
0.0451952269	another neural
0.0451896610	accuracy without
0.0451888377	a description
0.0451847956	current approaches for
0.0451847723	deviations in
0.0451837882	this issue by
0.0451808605	proposed method on
0.0451806039	a stochastic approximation
0.0451792363	methods result in
0.0451787952	extracted in
0.0451767709	randomness of
0.0451767709	adaptivity of
0.0451763215	the vast majority of
0.0451755774	\ ell \
0.0451742539	the road network
0.0451684357	any initial
0.0451645315	the main goal of
0.0451635298	new model
0.0451617967	for producing
0.0451605066	the model capacity
0.0451599233	the training images
0.0451561812	predicted using
0.0451552458	the first and second order
0.0451539797	behave in
0.0451533814	particularly well suited to
0.0451530240	requires at
0.0451521848	a certain class of
0.0451511727	in terms of generalization
0.0451499020	and thus to
0.0451480033	such games
0.0451478994	collected on
0.0451449667	myriad of
0.0451448492	a multidimensional
0.0451447026	the instantaneous
0.0451427835	a secret
0.0451427252	the phase retrieval
0.0451419341	the same error
0.0451345469	weaknesses in
0.0451323157	the wave
0.0451283862	different cases
0.0451274518	the best known
0.0451260702	an end
0.0451258784	the catastrophic
0.0451255623	controlling for
0.0451177158	the main focus
0.0451162516	to contribute
0.0451117033	the seen
0.0451115506	a small data
0.0451042599	a set of observed
0.0451022330	advice for
0.0451021366	a novel spectral
0.0450928546	a decoupled
0.0450904662	problems as well as
0.0450904298	expensive to
0.0450878195	a new proof
0.0450857397	assessed in
0.0450798445	the above problems
0.0450718814	with very limited
0.0450623747	forecasts for
0.0450620848	challenging due
0.0450599278	a random subset of
0.0450583239	the baseline method
0.0450559956	correct for
0.0450559882	the trimmed
0.0450523502	a collision
0.0450503285	a wide range of tasks
0.0450496003	a hand
0.0450477729	via inverse
0.0450464313	the input domain
0.0450437360	off policy evaluation for
0.0450419420	a set of features
0.0450397983	posterior distributions of
0.0450367025	timing of
0.0450330098	the same function
0.0450327771	the eigenspace
0.0450321162	challenging to
0.0450311396	the essence
0.0450305482	$ \ frac \
0.0450288458	the data sample
0.0450288019	the loading
0.0450222896	do not work
0.0450217531	an algorithm for
0.0450187623	such as health
0.0450169282	descent method for
0.0450167158	a sub
0.0450152655	accuracy across
0.0450150349	penalties on
0.0450141628	in several cases
0.0450138801	living in
0.0450132114	or lower
0.0450125407	match with
0.0450100460	in terms of computational
0.0450098321	on various tasks
0.0450089107	^ \ star \
0.0450085948	type methods for
0.0450057488	able to make
0.0450051815	past few
0.0450008109	irrelevant for
0.0449989234	and more than
0.0449978239	data produced by
0.0449973921	generalization gap of
0.0449945167	the underlying task
0.0449896690	surrogate for
0.0449895762	a common model
0.0449885651	non linearity in
0.0449872441	range dependencies in
0.0449843127	the generalization ability
0.0449835803	a novel optimization
0.0449818785	used with
0.0449814419	established as
0.0449802941	the first paper
0.0449768988	the natural gradient
0.0449766214	a fundamental problem in machine
0.0449760052	both parametric
0.0449744833	service for
0.0449741252	a feature selection
0.0449740254	the neural net
0.0449738099	also help
0.0449737690	the superposition
0.0449707181	and prox
0.0449685476	several variants of
0.0449664446	this problem by introducing
0.0449638582	a spherical
0.0449627638	representations without
0.0449606687	all state
0.0449578545	the static
0.0449565787	the way in
0.0449565787	the way of
0.0449553533	terms of various
0.0449549427	a more robust
0.0449505129	sampling methods for
0.0449486751	some state of
0.0449483377	only on
0.0449472413	train on
0.0449436090	to obtain high
0.0449435906	source of information for
0.0449433949	certain aspects
0.0449425630	only under
0.0449419640	the signal to noise
0.0449382740	brought to
0.0449341591	long as
0.0449334185	data extracted from
0.0449314391	a subjective
0.0449307065	each training
0.0449294585	true number of
0.0449275638	results in terms of
0.0449258668	a single latent
0.0449242516	according to different
0.0449226821	easier for
0.0449217372	$ \ sigma \
0.0449208012	the class conditional
0.0449203059	results lead to
0.0449191359	computation at
0.0449186244	the problem of low rank
0.0449170979	novel graph
0.0449125904	$ 0 \
0.0449081752	across different datasets
0.0449079122	components such as
0.0449077500	by limiting
0.0449075534	the mean of
0.0449061812	differences from
0.0449039924	this results in
0.0448981867	the previous works
0.0448964964	to spike
0.0448934098	a window
0.0448889206	new type
0.0448870307	a single kernel
0.0448835656	by characterizing
0.0448827976	sub class
0.0448758379	problems due to
0.0448712574	parametric approach to
0.0448666413	a ranked list of
0.0448661647	a new meta
0.0448629950	the novel
0.0448617251	point to
0.0448597432	in many application domains
0.0448585559	challenge due to
0.0448571763	encoding for
0.0448569892	with respect to state
0.0448555799	a stochastic variant
0.0448547334	concern for
0.0448538014	a contextual
0.0448537400	a globally
0.0448505526	a parsimonious
0.0448494962	missing or
0.0448478712	good convergence
0.0448451567	correcting for
0.0448444677	put on
0.0448442375	appropriate level
0.0448410319	with regard
0.0448366879	$ s \ in
0.0448366143	little as
0.0448334559	a property
0.0448311221	the problem of binary
0.0448286036	large dataset of
0.0448284634	for implementing
0.0448278124	refinement of
0.0448271629	happen to
0.0448245979	different choices
0.0448227223	spirit to
0.0448226446	then trained
0.0448184534	attributes of
0.0448173488	these two problems
0.0448170555	not guaranteed to
0.0448123747	instability in
0.0448092357	an easily
0.0448062678	ahead of
0.0448049639	the first large scale
0.0448046871	not well suited for
0.0447983606	$ \ varepsilon \
0.0447982856	tensors with
0.0447914618	further present
0.0447831380	or just
0.0447775798	from computer vision
0.0447734329	the same level
0.0447669916	any network
0.0447647922	the system state
0.0447620164	the intricate
0.0447569276	the time and
0.0447557577	a wide variety of problems
0.0447545146	compact models
0.0447534672	unsupervised approach to
0.0447527470	the universe
0.0447522524	the problem of generating
0.0447500162	a coordinate descent
0.0447445670	a theorem
0.0447408109	realized in
0.0447323504	the gradient boosting
0.0447293677	done for
0.0447279887	various metrics
0.0447260702	samples according to
0.0447151114	the status
0.0447129069	proposed approach on
0.0447118151	both standard
0.0447101171	a subset of data
0.0447038592	a general graph
0.0447025725	the asymptotic variance
0.0447007087	performance without
0.0446993450	arrival of
0.0446988801	bank of
0.0446987434	a computer
0.0446977990	$ \ gamma \
0.0446972725	the embedded
0.0446971591	competition on
0.0446932105	a new formulation
0.0446928497	to generate samples
0.0446923559	the first to
0.0446916972	success in various
0.0446910480	novel machine learning
0.0446908845	a white
0.0446858425	two independent
0.0446807804	a large amount of data
0.0446784178	models for large
0.0446739205	a theoretical analysis of
0.0446717429	by suggesting
0.0446709055	the absence
0.0446670133	model performance on
0.0446640135	different machine
0.0446527202	the tightness
0.0446514635	a belief
0.0446481774	a probabilistic graphical
0.0446431128	classification tasks on
0.0446404505	superior or
0.0446388184	the performance of deep
0.0446373258	mostly focus on
0.0446336069	procedure allows
0.0446328945	but also to
0.0446325269	any neural
0.0446323751	such biased
0.0446322525	space with
0.0446300053	adjust for
0.0446285832	release of
0.0446232042	a technical
0.0446218496	a need for
0.0446178313	deployment in
0.0446165463	the tension
0.0446148106	learning rate for
0.0446130625	use in practice
0.0446052845	a novel scheme
0.0446052845	a new regularization
0.0446036090	of non zero entries
0.0446028546	a client
0.0446025110	the approximated
0.0446006257	decrease as
0.0445990489	for example by
0.0445935411	optimizer for
0.0445836874	a generalization
0.0445830114	the joint distribution of
0.0445823068	a novel approach for
0.0445819074	promising performance in
0.0445789783	the first practical
0.0445743215	d ^ \
0.0445710386	a set of observations
0.0445636374	change detection in
0.0445605397	a new machine learning
0.0445593117	the score function
0.0445561220	objectives such as
0.0445462075	existing techniques for
0.0445455773	the spirit
0.0445406463	network as well as
0.0445377101	used at
0.0445345925	this mismatch
0.0445314122	a novel variant
0.0445294467	a novel probabilistic
0.0445292594	deterministic or
0.0445273538	the standard model
0.0445254006	networks tend to
0.0445243622	of proteins
0.0445242366	studies show
0.0445226454	\ widetilde \
0.0445182980	enforced in
0.0445162573	system under
0.0445162573	thus not
0.0445127890	positive or
0.0445091408	a new version
0.0445034414	limited set of
0.0445032211	scalable approach to
0.0445007278	same image
0.0444931019	by splitting
0.0444920124	constraints such as
0.0444918727	search through
0.0444879765	the framework of variational
0.0444874758	challenges such as
0.0444824025	by grouping
0.0444792115	a theoretical study
0.0444782997	a new state
0.0444764877	reports on
0.0444687645	multiple time
0.0444665888	to sum
0.0444662304	novel training method
0.0444661752	information available in
0.0444659235	objective function as
0.0444652630	in terms of robustness
0.0444612917	\ mu \
0.0444509807	no previous
0.0444492643	with synthetic and real data
0.0444439586	last iterate of
0.0444431334	to enjoy
0.0444431297	purely on
0.0444408867	the time of
0.0444376298	in particular to
0.0444368629	the second network
0.0444358759	rather than to
0.0444348616	by \ cite
0.0444345849	the nodule
0.0444340683	considering only
0.0444339227	from incomplete
0.0444331964	a trained model
0.0444264478	a stationary
0.0444237778	sampling without
0.0444192678	the open set
0.0444150348	optima for
0.0444130926	the element
0.0444116823	a method to improve
0.0444107779	or computationally
0.0444104467	unsupervised method for
0.0444062687	setting with
0.0444033202	methods do
0.0444014851	each hidden
0.0443977996	\ mathbb r ^ n \
0.0443918110	the left
0.0443837551	convex nature of
0.0443777800	independently with
0.0443757848	the legal
0.0443710238	mix of
0.0443693650	a simple data
0.0443691070	research work
0.0443678899	great potential to
0.0443662191	to item
0.0443583922	the partition
0.0443581425	for exploring
0.0443581411	a novel connection
0.0443577962	the embedding dimension
0.0443572615	first known
0.0443571869	concise and
0.0443515945	a popular class of
0.0443510221	the standard supervised
0.0443440098	three orders of
0.0443418647	the low data
0.0443411502	the problem of approximate
0.0443409183	analysis over
0.0443404994	appear as
0.0443356579	likelihood estimation for
0.0443327633	in two ways
0.0443189350	tackled in
0.0443183600	cardinality of
0.0443096064	the most useful
0.0443095801	these lower
0.0443084171	more effectively than
0.0443038748	a cooperative
0.0442943229	both classification and regression
0.0442915080	mean squared error of
0.0442905705	comparable to or better
0.0442866853	risks of
0.0442852784	by humans
0.0442811681	the conditional distribution of
0.0442800677	a solution to
0.0442798278	methods allow
0.0442773369	the raw input
0.0442751813	of available data
0.0442731494	extensible and
0.0442707707	many recent
0.0442696143	and even
0.0442678385	arms with
0.0442662169	novel deep learning
0.0442656699	an increase
0.0442652612	the existing algorithms
0.0442633004	operators on
0.0442622023	classifier under
0.0442592787	novel algorithms
0.0442580666	the degree
0.0442539628	methods do not
0.0442475051	a sequence to sequence
0.0442452636	any human
0.0442437448	real datasets show
0.0442430489	the reach
0.0442415616	separately on
0.0442414804	instability of
0.0442411925	the entire set
0.0442408437	the lp
0.0442367563	an averaging
0.0442367417	a framework based
0.0442340420	most widely used
0.0442332493	singular value decomposition of
0.0442326061	the most competitive
0.0442318545	dependence in
0.0442311913	consistent estimator of
0.0442295499	many more
0.0442246793	a rapid
0.0442227917	the excellent performance of
0.0442192151	a separable
0.0442140491	simple variant of
0.0442081851	more structured
0.0442067948	some settings
0.0441996619	instead of relying
0.0441983377	work in
0.0441962600	to find solutions
0.0441953907	the riemannian
0.0441870127	a correspondence
0.0441866821	for tackling
0.0441844462	a median
0.0441840540	deployed as
0.0441817171	the effect of noise
0.0441806290	a widely used technique
0.0441800695	these objectives
0.0441771249	network into
0.0441681906	the causal structure
0.0441653491	the outcome of
0.0441646758	two broad
0.0441644059	between tasks
0.0441643795	happens in
0.0441608609	does not need to
0.0441596464	to filter
0.0441595606	a component
0.0441589024	this fixed
0.0441577648	coordination of
0.0441500589	often rely
0.0441496936	a very general
0.0441475710	included as
0.0441474349	learning algorithm with
0.0441355184	algorithm compared to
0.0441346342	amount of time
0.0441293334	clustering under
0.0441253628	some underlying
0.0441252719	a projection
0.0441199211	ablation study to
0.0441166762	full set
0.0441136278	conditions such as
0.0441070212	applications in computer
0.0441062457	interpreted in
0.0441057907	between features
0.0441055033	a graph neural
0.0441040355	a data mining
0.0440989196	setup with
0.0440897827	latent variable models with
0.0440854440	estimation from
0.0440843777	the energy efficiency of
0.0440841245	chaotic time
0.0440813804	samples from different
0.0440780513	users into
0.0440719209	both efficient
0.0440718146	the special
0.0440711182	function from
0.0440705337	bands for
0.0440669098	a step towards
0.0440658852	each test
0.0440650158	the lower dimensional
0.0440619619	the distributed setting
0.0440611313	the problem of testing
0.0440609611	a set of constraints
0.0440606595	the optimization objective
0.0440604974	extent to
0.0440602629	the most important features
0.0440597685	also naturally
0.0440576138	the pooled
0.0440575289	the connection
0.0440570722	possible with
0.0440559744	clusters via
0.0440527810	the multi output
0.0440525979	a network architecture
0.0440518067	$ \ tilde \
0.0440497033	track of
0.0440418232	key idea of
0.0440397344	order statistics of
0.0440395643	behaviors in
0.0440372681	incorporated to
0.0440366658	a large data
0.0440351567	initializations for
0.0440317673	model learned from
0.0440233402	a zero sum
0.0440217432	show analytically
0.0440215041	both theory and
0.0440192895	optimized to
0.0440186757	\ times \
0.0440184914	a voting
0.0440173876	an alignment
0.0440167359	variables such as
0.0440166148	an off
0.0440161900	coupled to
0.0440081876	the reduced order
0.0440043435	both synthetic data and
0.0440024360	and consequently
0.0440008109	optimizer with
0.0440007641	a variety of scenarios
0.0439972431	important in many
0.0439948365	and properly
0.0439943869	competitive results with
0.0439940169	a stimulus
0.0439916623	the algorithm achieves
0.0439892937	$ a \ in
0.0439879407	a monotonic
0.0439835107	need to make
0.0439828276	optimization approach for
0.0439802607	a relatively simple
0.0439789757	a region
0.0439730143	an optimal number
0.0439725849	poorly on
0.0439709742	the coronavirus
0.0439669928	standard approach to
0.0439650807	some real
0.0439609706	the nature of
0.0439539264	both empirically
0.0439486934	interaction models
0.0439455862	the learning objective
0.0439452846	network capable of
0.0439450481	model trained with
0.0439428035	two limitations
0.0439382313	applied at
0.0439354326	$ f_ \
0.0439338241	to label noise
0.0439332082	indicator for
0.0439325783	the policy network
0.0439324982	often provide
0.0439304708	the minibatch
0.0439228206	only unlabeled
0.0439159798	instead of solving
0.0439103828	parameters during
0.0439100600	a privacy
0.0439086560	the estimated model
0.0439062289	promising approach for
0.0439029132	a new probabilistic
0.0439011610	robust method for
0.0438965495	the clustering objective
0.0438956472	a visualization
0.0438882002	most frequently
0.0438869485	the most critical
0.0438864081	the amount of information
0.0438853477	predicted with
0.0438837805	the experiment
0.0438799057	a novel method called
0.0438635058	the fairness of
0.0438630804	other points
0.0438565365	the diameter
0.0438565365	the oil
0.0438545024	in various settings
0.0438541185	a survey on
0.0438498729	the capability of
0.0438494224	in \ mathbb r ^ n
0.0438457287	$ norm of
0.0438432082	devised to
0.0438414779	based framework to
0.0438332357	width of
0.0438326712	several previous
0.0438181366	days for
0.0438172938	revealed in
0.0438157558	a causal inference
0.0438057555	signals such as
0.0438052076	for quantifying
0.0438046332	better prediction
0.0438041514	the latent structure
0.0438034052	a time consuming
0.0438018753	weights associated
0.0438004105	a problem of
0.0437961277	the minimax risk
0.0437913644	the training dynamics of
0.0437850828	a tendency
0.0437758380	the art methods by
0.0437727614	essence of
0.0437710253	proposed method over
0.0437706423	both machine
0.0437702904	1 \ log
0.0437663378	the amount of noise
0.0437629546	the heart
0.0437569276	a first of
0.0437532810	day to
0.0437528281	the constructed
0.0437507599	the number of local
0.0437498996	an approach based
0.0437474009	one common
0.0437420155	helping to
0.0437410981	nonlinearity of
0.0437389648	similar to other
0.0437368628	competitive or
0.0437337930	spectrograms of
0.0437281589	a learning to rank
0.0437243636	with probability at least
0.0437183894	in terms of predictive
0.0437140780	flows from
0.0437125765	the training datasets
0.0437106956	a particular type
0.0437068335	a posterior distribution
0.0437034378	entirely on
0.0437006257	inferences on
0.0436991882	barycenter of
0.0436983772	the paper shows
0.0436971648	methods proposed in
0.0436950054	input parameters of
0.0436944651	two strategies
0.0436938412	both known and
0.0436928028	data from two
0.0436923559	as well as on
0.0436900555	$ x \ in
0.0436890879	used for image
0.0436828184	the trade
0.0436775413	other machine
0.0436671953	like to
0.0436633892	especially with
0.0436611041	rate over
0.0436582189	than sgd
0.0436561237	the universality
0.0436540857	different underlying
0.0436518205	the long short
0.0436511266	the given dataset
0.0436474396	datasets with various
0.0436456551	a novel application
0.0436448924	on two real
0.0436425695	robust to changes in
0.0436419436	networks without
0.0436392252	the upper confidence
0.0436327771	the host
0.0436297260	way to identify
0.0436238528	look for
0.0436235699	dilemma in
0.0436178765	the chinese
0.0436165463	a superposition
0.0436141262	hierarchical clustering with
0.0436126447	estimation with
0.0436106605	the generator network
0.0436099921	detection from
0.0436075249	no knowledge
0.0436071869	poorly with
0.0436050457	images during
0.0436001216	the transformer architecture
0.0435964937	segmentation by
0.0435931248	work by
0.0435924813	the algorithm performs
0.0435894241	these same
0.0435842309	the time complexity
0.0435829343	not only outperforms
0.0435810718	then evaluated
0.0435792440	the affirmative
0.0435786773	need for manual
0.0435762403	performing models
0.0435751149	the transition dynamics
0.0435696385	the whole training
0.0435648705	necessary and sufficient condition for
0.0435643348	help to
0.0435559417	recently proposed as
0.0435511874	without direct
0.0435509820	a highly accurate
0.0435471073	a fundamental task in
0.0435368752	the secondary
0.0435318222	to conclude
0.0435317205	to achieve state of
0.0435315215	in machine learning and statistics
0.0435305769	used to understand
0.0435273503	efficient approach to
0.0435231871	these two steps
0.0435211673	in two phases
0.0435201196	a considerable amount of
0.0435168932	important feature of
0.0435168260	results on several
0.0435123092	mathematical framework to
0.0435121877	not typically
0.0435118846	the lack of labeled
0.0435093681	the number of mixture
0.0435084065	inputs and outputs of
0.0435080666	the max
0.0435012657	and also demonstrate
0.0435006271	normality of
0.0434994124	p values for
0.0434971396	the entire model
0.0434964674	optimal with respect to
0.0434950634	the uncertainty set
0.0434910080	an efficient optimization
0.0434787818	a method to perform
0.0434782357	most traditional
0.0434749657	a novel hierarchical
0.0434748875	with just
0.0434705439	the generality of
0.0434673109	the statistical analysis
0.0434644872	also considers
0.0434638582	a wrong
0.0434612863	for aligning
0.0434603936	this construction
0.0434592948	classification accuracy by
0.0434592948	real data show
0.0434579686	the utilization
0.0434535667	classification model for
0.0434490960	some loss
0.0434443452	exists for
0.0434423239	or simply
0.0434404505	filters from
0.0434401282	then evaluate
0.0434342386	the cone
0.0434312000	two new methods
0.0434275979	the local data
0.0434213015	the data into
0.0434043092	environment with
0.0434027430	simulation results on
0.0433991153	a total of
0.0433980271	to attempt
0.0433974831	algorithm applied to
0.0433955376	\ epsilon ^ 2 \
0.0433936155	a coarse
0.0433869841	both finite
0.0433862002	a powerful paradigm for
0.0433862002	a growing body of
0.0433861696	machine learning tasks such as
0.0433796348	a batch of
0.0433764734	still provide
0.0433763379	patterns over
0.0433746779	not limited to
0.0433709470	the transductive
0.0433612465	a new point
0.0433565559	or comparable performance
0.0433526229	population of
0.0433510789	proposed approach provides
0.0433506373	a single framework
0.0433494962	relationships from
0.0433490378	the teacher network
0.0433490197	the relevant features
0.0433468266	formulated in
0.0433452661	an adaptation of
0.0433423751	an equal
0.0433417165	no training
0.0433403641	instead of directly
0.0433398270	learning problems with
0.0433324556	this article provides
0.0433311679	optimization problem for
0.0433299285	other algorithms
0.0433280310	success of deep neural networks in
0.0433195718	the interior
0.0433189350	overlooked in
0.0433149000	desirable for
0.0433102021	\ over
0.0433027712	the paradigm
0.0433002597	also extends
0.0432963318	image classification with
0.0432914965	do not rely on
0.0432878258	also handle
0.0432862683	a mathematical framework
0.0432836601	a spectral
0.0432828170	the underlying problem
0.0432791181	a host
0.0432790688	efficiently by
0.0432699951	good prediction
0.0432666591	first demonstrate
0.0432643480	yields more
0.0432605709	this type of data
0.0432539732	a single neural
0.0432449719	the new dataset
0.0432423063	a computational cost
0.0432394999	and time efficient
0.0432377495	both time and space
0.0432315489	latent space of
0.0432237315	order to do so
0.0432226094	to suggest
0.0432202963	minimax rate of
0.0432129985	objective function for
0.0432126988	the properties of
0.0432039978	at \ url
0.0432011798	method converges to
0.0431963521	a novel combination
0.0431956607	better than or
0.0431921333	on four benchmark
0.0431915893	way towards
0.0431854388	cluster analysis of
0.0431830975	used in machine
0.0431810034	a pairwise
0.0431767197	this problem by
0.0431757231	both classification
0.0431755540	show theoretically
0.0431751484	the same underlying
0.0431673412	a new adaptive
0.0431492274	the high performance
0.0431486753	to further reduce
0.0431454544	particular focus on
0.0431413493	approach in terms of
0.0431384080	no better than
0.0431368950	sampling via
0.0431334240	a nontrivial
0.0431305795	most popular approaches
0.0431272212	different techniques
0.0431267404	probabilistic model of
0.0431245849	the realizable
0.0431238107	the classical problem
0.0431229608	the multiple instance
0.0431225335	error rate as
0.0431203285	stationary point with
0.0431197672	effective strategy for
0.0431169546	the art in terms of
0.0431158864	both parameter
0.0431121036	the upper bounds
0.0431034836	evaluation on several
0.0431008486	used to increase
0.0430999920	compressed by
0.0430996839	a global optimization
0.0430965497	high accuracy of
0.0430951567	hours on
0.0430936687	the large data
0.0430911092	applied in many
0.0430904994	this last
0.0430836072	used to implement
0.0430827261	and also on
0.0430798760	other forms of
0.0430798284	the basis functions
0.0430788131	a feedforward neural
0.0430783101	natural approach to
0.0430752061	generality of
0.0430746120	space so
0.0430720242	first theoretical
0.0430673559	of interest in
0.0430640018	a localized
0.0430582082	assigned with
0.0430572676	also use
0.0430555712	an audio
0.0430525484	a carefully
0.0430522144	explanation as
0.0430478151	able to describe
0.0430473453	and faster convergence
0.0430445472	then applied
0.0430441847	while accounting
0.0430433763	a variety of algorithms
0.0430375828	intrinsic dimension of
0.0430358400	to focus
0.0430329558	a compact model
0.0430326568	an agent to learn
0.0430322063	a widespread
0.0430299332	the velocity
0.0430292915	the latter two
0.0430230836	probabilities from
0.0430189046	the beta
0.0430179182	the retrieved
0.0430178416	and widely
0.0430132904	a new algorithmic
0.0430009132	a flexible way
0.0430006257	reported as
0.0429985653	a very small
0.0429980318	a critic
0.0429945670	a partially
0.0429936839	way to construct
0.0429918727	updates at
0.0429909668	a post
0.0429890085	in terms of number
0.0429868484	posed in
0.0429830219	\ top
0.0429804266	an emphasis
0.0429796591	best overall
0.0429777980	the number of latent
0.0429770816	the problem of multi
0.0429741299	powerful models
0.0429715483	such events
0.0429702946	the highest
0.0429630750	closely with
0.0429620499	the optimal convergence
0.0429540355	becomes computationally
0.0429529373	adjusted for
0.0429515632	the interior of
0.0429505526	a nonsmooth
0.0429475918	many desirable
0.0429445069	to model uncertainty
0.0429443194	replication of
0.0429336931	framework using
0.0429313475	stochastic algorithms for
0.0429307670	a significant number
0.0429208860	appearance of
0.0429163959	both reconstruction
0.0429080540	different behavior
0.0429076372	the large volume
0.0429041165	a word
0.0429026699	by following
0.0429022937	in terms of regret
0.0429019910	the concatenation
0.0429019103	possible to perform
0.0428965016	several machine learning
0.0428963168	a classification accuracy
0.0428872107	extensive use
0.0428827771	a logical
0.0428827771	a periodic
0.0428813527	an optimisation
0.0428785172	the training dynamics
0.0428784072	predictive models for
0.0428779887	only involves
0.0428726165	such patterns
0.0428691590	a drop
0.0428685770	techniques used in
0.0428678811	means to
0.0428668672	only able to
0.0428650044	to further
0.0428621352	the susceptibility
0.0428538203	a series of empirical
0.0428533424	a novel extension
0.0428512628	the common practice
0.0428498729	the definition of
0.0428498729	the key to
0.0428486033	sensitivity analysis for
0.0428460274	the beta distribution
0.0428411869	the desired properties
0.0428388243	a mini
0.0428363659	not well
0.0428358143	the computational performance
0.0428326155	critical applications such
0.0428319324	the domain knowledge
0.0428314591	with two hidden
0.0428259525	the impossibility
0.0428257822	to return
0.0428205925	supervised learning models
0.0428179642	the problem of matrix
0.0428146846	different state of
0.0428124473	decisions at
0.0428123258	an approach for
0.0428075531	both image
0.0428069324	the vector space
0.0428025657	the conditional distribution
0.0428006404	the first theoretical
0.0427987734	$ p \ in
0.0427982515	a given probability
0.0427956269	a student model
0.0427951376	general method for
0.0427938407	both statistical
0.0427937041	and sometimes even
0.0427915516	identified using
0.0427839828	dimensions via
0.0427825020	only recently
0.0427773529	the choice of kernel
0.0427694545	a set of metrics
0.0427653461	a random initialization
0.0427647406	used to find
0.0427638582	a compound
0.0427598083	the most difficult
0.0427592005	to respect
0.0427564346	for visualizing
0.0427562835	propose four
0.0427560345	the feature importance
0.0427537238	for learning latent
0.0427457059	the same conditions
0.0427374933	difficult or
0.0427372948	most widely
0.0427359170	factors from
0.0427292287	such issues
0.0427284273	domains via
0.0427282055	the magnetic
0.0427268095	better performance compared to
0.0427238813	feasible to
0.0427238801	connect to
0.0427182823	a surge
0.0427095957	university of
0.0427095738	the prediction performance
0.0427079872	dynamical system from
0.0427057427	recently due to
0.0427052024	the empirical success
0.0427029308	proposed approach allows
0.0427016592	distributions via
0.0427007338	a polynomial time algorithm for
0.0426946250	* \ in
0.0426931964	the boundedness
0.0426926568	the transferability of adversarial
0.0426871687	a new reinforcement learning
0.0426816326	data come from
0.0426783416	flexibility to
0.0426674303	a compressed
0.0426660103	an efficient approach
0.0426634854	the optimal solutions
0.0426623758	a hard
0.0426608387	existing methods do not
0.0426585929	and only if
0.0426527202	the arc
0.0426521145	even for simple
0.0426472243	other studies
0.0426470050	loss with respect to
0.0426431144	to close
0.0426426923	a tailored
0.0426416359	a thousand
0.0426368846	in contrast to traditional
0.0426337721	challenges due to
0.0426304183	a differential
0.0426282426	for dealing
0.0426255924	nonlinearity in
0.0426209221	used to enhance
0.0426195386	novel deep
0.0426189352	example of
0.0426166123	competitive with or
0.0426162369	signals via
0.0426091060	adjusted to
0.0426051661	with missing
0.0426041618	amount of communication
0.0426039017	subjects from
0.0426033285	four tasks
0.0426027125	the knowledge base
0.0425995643	capacity for
0.0425933151	complex tasks such as
0.0425888402	a classification model
0.0425872232	the model's ability
0.0425865663	findings with
0.0425861092	the first few
0.0425845738	the feature vectors
0.0425840932	the problem of sparse
0.0425825408	achieved while
0.0425824316	three tasks
0.0425812941	a specific type
0.0425804796	by several orders
0.0425783101	significant number of
0.0425775435	in terms of prediction
0.0425752405	calls to
0.0425720351	penalty on
0.0425694511	ingredients of
0.0425621352	a ranked
0.0425605548	the debiased
0.0425497176	the theoretical findings
0.0425483134	address two
0.0425481057	this advantage
0.0425419136	used in deep
0.0425413824	as building blocks
0.0425382422	an efficient algorithm based on
0.0425343181	the choice
0.0425327106	level performance in
0.0425314910	iteration complexity for
0.0425263577	and more robust
0.0425250194	various experiments
0.0425238772	a new evaluation
0.0425210058	these key
0.0425200721	by pooling
0.0425174261	a promising method
0.0425156632	a limited amount of
0.0425127082	the viability
0.0425096503	the type of
0.0425086611	in terms of sample complexity
0.0425086151	a new variant
0.0425079979	descriptors for
0.0425046431	this difference
0.0424996576	the run
0.0424945495	approach inspired by
0.0424927469	a d
0.0424908757	to train deep
0.0424888965	a notoriously
0.0424824151	the whole system
0.0424800102	the first model
0.0424780647	effective dimension of
0.0424723518	both continuous
0.0424671798	compare with
0.0424667702	this basic
0.0424650807	several machine
0.0424638582	a formalism
0.0424578136	log k
0.0424530664	discrete set of
0.0424530656	an urban
0.0424519853	sketches for
0.0424503735	the k space
0.0424483993	generalize from
0.0424466747	any machine
0.0424458814	the wealth
0.0424390330	a set of random
0.0424308275	a disease
0.0424307376	a new notion of
0.0424305406	to fill in
0.0424293306	only outperforms
0.0424236987	a hyperparameter
0.0424236394	the university
0.0424228717	reward while
0.0424213015	the limits of
0.0424202404	models for learning
0.0424185887	optimizes for
0.0424160199	the optimal adversarial
0.0424148427	a desirable
0.0424037660	block model with
0.0423974919	the occurrence of
0.0423971915	a threat
0.0423938869	the pros and cons of
0.0423830705	to trade
0.0423813170	the numerical solution of
0.0423805565	created for
0.0423776527	varies with
0.0423758174	a feature map
0.0423721242	the art performance on several
0.0423709997	the training of deep
0.0423690065	chosen to
0.0423687240	a stochastic block
0.0423680800	ranking using
0.0423652578	models for predicting
0.0423620665	a necessary
0.0423581379	such as social networks
0.0423518750	generative model with
0.0423507201	able to better
0.0423497776	a shorter
0.0423479163	low number of
0.0423447405	the inference network
0.0423443957	the training of deep neural networks
0.0423430445	the sample efficiency
0.0423391439	a fully supervised
0.0423390962	great importance to
0.0423380481	the relative importance
0.0423372794	the graph convolutional
0.0423358375	classification problem using
0.0423324298	the specialized
0.0423304302	a given policy
0.0423302255	a fine
0.0423279509	evolutionary algorithm to
0.0423225654	by revealing
0.0423159970	different from previous
0.0423153942	allows for fast
0.0423138559	stochastic gradients for
0.0423117236	interest due to
0.0423064879	impractical to
0.0423027035	the stochastic multi
0.0422983250	need to estimate
0.0422982611	three state of
0.0422944143	popularity as
0.0422908636	both seen and
0.0422869485	used to form
0.0422827701	the notion
0.0422672533	effective number of
0.0422668025	quantities from
0.0422662783	a cheap
0.0422648219	but also provides
0.0422498996	the general problem
0.0422477385	not affect
0.0422468858	the quadratic loss
0.0422390471	a statistically
0.0422385784	the performance of machine
0.0422379490	or more generally
0.0422364984	both industry
0.0422361014	to limit
0.0422285316	a speed up
0.0422280336	dimensionality reduction with
0.0422263507	a fundamental role in
0.0422248310	a new statistical
0.0422231707	learning theory for
0.0422199039	a problem dependent
0.0422161141	high level of
0.0422103178	a model of
0.0422075977	an alternative to
0.0421984682	labels during
0.0421977405	of knots
0.0421910310	$ q \ in
0.0421871537	a series of numerical
0.0421817660	principles from
0.0421776052	but also allows
0.0421764262	optimal policies in
0.0421668110	methodology allows
0.0421657209	or incomplete
0.0421571774	a viable alternative to
0.0421571158	the speech signal
0.0421561237	the formation
0.0421557044	proposed approach over
0.0421530711	$ q ^
0.0421518424	the full information
0.0421510315	updated as
0.0421507337	$ \ left \
0.0421506930	a battery
0.0421493450	winner of
0.0421423705	loss functions under
0.0421418084	from positive and unlabeled data
0.0421401438	slightly more
0.0421387403	training set with
0.0421362513	the numerical results
0.0421310831	local geometry of
0.0421284286	of magnitude faster than
0.0421236987	a sense
0.0421235784	tendency of
0.0421136542	a deep convolutional
0.0421095213	a default
0.0421094233	attention model for
0.0421033864	some linear
0.0421029532	focus on two
0.0421011129	a multiscale
0.0421001178	general technique for
0.0420968453	a communication
0.0420933797	due to noise
0.0420927190	does not take into
0.0420915616	investigated as
0.0420907587	while most existing
0.0420906244	a spatial
0.0420886419	the f1
0.0420841458	search space by
0.0420839020	+ algorithm
0.0420827654	two publicly available
0.0420754158	new generation
0.0420729865	a mobile
0.0420718426	common task in
0.0420690564	also used to
0.0420671927	time t
0.0420643348	to become
0.0420635031	several different
0.0420607580	amount of information
0.0420568568	a semi
0.0420549253	an adversarial learning
0.0420511979	a constraint
0.0420430384	learning process in
0.0420408437	the sparseness
0.0420376406	both aspects
0.0420257829	the collection
0.0420228227	a class label
0.0420225820	least one
0.0420207820	the generalization performance of
0.0420199348	the hidden variables
0.0420199348	the community structure
0.0420193425	the mean absolute
0.0420164348	standard method for
0.0420158740	a number of applications
0.0420117799	a response
0.0420116850	a new classifier
0.0420110030	also validate
0.0420066901	proposals for
0.0420025168	algorithm gives
0.0420011582	to batch size
0.0419996515	an efficient and effective
0.0419977369	more training data
0.0419956643	\ log 1
0.0419921064	many areas such as
0.0419892903	improve robustness of
0.0419862530	a fact
0.0419794049	a more challenging
0.0419751320	finite mixture of
0.0419717125	lower number of
0.0419714942	works in
0.0419701938	the similarity between
0.0419701413	inference problem in
0.0419685819	a near linear
0.0419678206	the extended kalman
0.0419638582	to grow
0.0419588543	both training and inference
0.0419585747	proved by
0.0419549524	on four different
0.0419531475	the encoder and decoder
0.0419519424	to improve convergence
0.0419479872	learning and inference in
0.0419448440	used for learning
0.0419429271	the data sparsity
0.0419412698	$ \ log n
0.0419406251	expansions in
0.0419376130	a built in
0.0419339445	a collapsed
0.0419334405	a new deep learning
0.0419289073	the compression rate
0.0419273198	the high variance
0.0419233112	a reduction from
0.0419193189	efficiency over
0.0419171939	two different approaches
0.0419168395	the wall
0.0419168395	a replay
0.0419145576	recovery problem in
0.0419133997	the data at hand
0.0419110909	many machine
0.0419084479	possible to estimate
0.0419066939	to improve on
0.0419044421	a text
0.0419000672	but not in
0.0418980179	the art at
0.0418930505	more significant
0.0418882163	not useful
0.0418823481	the starting
0.0418792847	the correlation between
0.0418792830	new class
0.0418789409	such as anomaly detection
0.0418785832	principles for
0.0418739252	the exponential loss
0.0418724700	the traditional approach
0.0418618445	for learning graph
0.0418566481	different aspects of
0.0418537343	a graph convolutional
0.0418486033	squared error of
0.0418480989	same label
0.0418468456	the problem of unsupervised
0.0418456014	illustrated for
0.0418455210	some properties
0.0418429086	this new model
0.0418406515	an entropy
0.0418333512	while showing
0.0418326712	more generalized
0.0418313412	both optimization
0.0418237180	a faster convergence
0.0418132752	a distance
0.0418121749	these latent
0.0418120030	to achieve optimal
0.0418091344	a ranking
0.0418064519	also employ
0.0418011570	compares to
0.0417991035	models without
0.0417949753	derived in
0.0417902501	better model
0.0417868274	used together
0.0417863531	the learned feature
0.0417840764	many natural language
0.0417839763	the z
0.0417832082	mentioned in
0.0417771573	the same order as
0.0417713528	the previous studies
0.0417709811	a drug
0.0417667158	system with
0.0417588103	with very little
0.0417549600	unsupervised learning with
0.0417533702	holds with
0.0417527003	a true
0.0417470388	the model to learn
0.0417450531	several state
0.0417438882	a seed
0.0417420544	the reparameterization
0.0417376729	the placement
0.0417375102	a bayesian method for
0.0417367777	the extent of
0.0417334349	algorithm on several
0.0417297083	the convergence speed
0.0417281542	system of interest
0.0417249031	predictive model for
0.0417216241	pdes with
0.0417199973	a simple yet powerful
0.0417183722	the nonnegative matrix
0.0417162391	the returned
0.0417154698	regularization methods for
0.0417142375	divergence from
0.0417086480	by discovering
0.0417037566	the performance gain
0.0416973564	a variety of real
0.0416972196	in signal processing and machine learning
0.0416913894	a variety of synthetic
0.0416910919	the results show
0.0416892417	a novel sequential
0.0416891463	observed by
0.0416884271	as well as real world
0.0416875903	the predictive power
0.0416867556	the discriminative power
0.0416843196	the probability density
0.0416840264	with acceptable
0.0416821534	two widely used
0.0416796107	new algorithm called
0.0416782671	show in particular
0.0416742323	the recent literature
0.0416737288	optimal design of
0.0416692895	solution with
0.0416681906	the stochastic process
0.0416605009	the other three
0.0416598524	a natural extension of
0.0416575471	a residual
0.0416547112	the most commonly used
0.0416451484	various algorithms
0.0416450241	network approach for
0.0416390830	a new generative
0.0416345955	on standard datasets
0.0416324556	often suffer from
0.0416295168	under covariate
0.0416295133	a trajectory
0.0416273000	learning speed of
0.0416248882	a synthetic data
0.0416237252	inefficient for
0.0416233852	an unknown number of
0.0416215455	samples required to
0.0416197592	space complexity of
0.0416170143	a novel machine learning
0.0416165558	to fail
0.0416154695	the singular value
0.0416148357	domain knowledge of
0.0416067534	a rank
0.0416015603	the oracle complexity
0.0416005594	a result of
0.0415998555	a deep rl
0.0415995759	on several data
0.0415984412	constructed as
0.0415964016	proved in
0.0415934682	the process of learning
0.0415835656	this capability
0.0415791821	same framework
0.0415773947	the use of generative
0.0415722784	$ \ omega \
0.0415717039	in order to guarantee
0.0415702455	a regime
0.0415698707	hope to
0.0415667339	to use as
0.0415650120	probability if
0.0415622105	occurrence in
0.0415621352	a biologically
0.0415582574	a foundation
0.0415568570	the iterative nature of
0.0415546009	to search
0.0415543694	approach does
0.0415499018	allows to use
0.0415489318	a better performance
0.0415483037	by describing
0.0415450023	the number of observed
0.0415416517	a discrete time
0.0415326424	new metric
0.0415302596	the training of neural networks
0.0415300066	or at least
0.0415287038	the new class
0.0415240692	by searching
0.0415183498	function at
0.0415157626	different regularization
0.0415138042	the radius
0.0415128589	new objective function
0.0415121495	over baseline
0.0415083993	building models
0.0415074565	other models
0.0415060037	the jackknife
0.0415044059	classes without
0.0415023328	wasserstein distance for
0.0414934266	the robustness properties
0.0414908660	and then performs
0.0414886094	on standard image
0.0414876258	the weakly
0.0414859904	the work in
0.0414773661	novel estimator
0.0414681783	assumptions such as
0.0414629985	predictive accuracy of
0.0414610828	model in order to
0.0414540892	the inference process
0.0414493038	a set of latent
0.0414483993	similarities with
0.0414471097	an almost
0.0414443559	used as input
0.0414439054	than most
0.0414426543	used in combination
0.0414412800	heart of many
0.0414409334	the hypothesis class
0.0414386583	training set of
0.0414370383	inference scheme for
0.0414365230	tending to one
0.0414325103	for performing
0.0414264410	efficient way of
0.0414250184	a comprehensive review of
0.0414212260	different combinations of
0.0414162391	a nuisance
0.0414132787	this work provides
0.0414090466	models trained with
0.0414090466	a union of
0.0414078956	the covariance function
0.0414075811	minimization over
0.0414071982	a promising way
0.0414045044	the impossibility of
0.0414002130	dictionary learning for
0.0413985001	the selection process
0.0413981338	the training efficiency
0.0413947749	distributions without
0.0413887796	expected value of
0.0413871630	different semantic
0.0413854036	also applicable
0.0413836527	works well in
0.0413816341	in many practical
0.0413801871	bayesian networks from
0.0413754072	\ phi \
0.0413714876	major challenge of
0.0413703265	highlighted in
0.0413650488	the umbrella
0.0413557918	different values
0.0413557918	some statistical
0.0413555007	guarantees in terms of
0.0413547237	the availability of large
0.0413545684	also provide empirical
0.0413537246	efficient exploration in
0.0413526527	experimentation on
0.0413510514	novel nonparametric
0.0413498129	limits on
0.0413450464	the communication complexity
0.0413419760	the problem of stochastic
0.0413351580	a cascade
0.0413340175	does not consider
0.0413336874	a theory
0.0413328670	on graph data
0.0413316262	annotated for
0.0413308452	the first polynomial
0.0413273391	the class of functions
0.0413237535	the sequence length
0.0413232678	a deep learning model for
0.0413214494	the feed
0.0413161104	a half
0.0413125106	the intensive
0.0413122635	relies on two
0.0413115389	the bi
0.0413103828	domains without
0.0413086961	a simple linear
0.0413056571	models for speech
0.0413045854	a larger class of
0.0413036292	single type of
0.0413005930	the art approaches on
0.0412989756	interest from
0.0412968651	the domain shift
0.0412914371	a kernelized
0.0412840421	prediction over
0.0412832082	incorporated with
0.0412768477	to formalize
0.0412673285	there exist many
0.0412668472	$ \ tau \
0.0412646936	result by
0.0412638346	critical task in
0.0412490967	subgroup of
0.0412483246	methods attempt to
0.0412468266	preferences from
0.0412430094	a new type
0.0412400668	these relations
0.0412390492	from ehrs
0.0412343078	recently proposed by
0.0412304058	a collection
0.0412303932	a dynamical
0.0412263955	the same amount
0.0412249024	efficient compared to
0.0412229665	an iteration
0.0412174586	a single forward
0.0412162391	the european
0.0412088913	the message
0.0412080624	dictionaries for
0.0412074286	novel solution
0.0412062597	learning models for
0.0412033623	velocity of
0.0411990848	a novel framework called
0.0411972788	a stochastic optimization
0.0411890975	and many others
0.0411881236	the new data
0.0411861683	learning strategies for
0.0411853517	training time of
0.0411828842	a graph embedding
0.0411805449	ones based on
0.0411768811	four real
0.0411753642	a novel latent
0.0411686208	guarantees than
0.0411667411	large range of
0.0411649305	a novel scalable
0.0411590879	for enhancing
0.0411571403	a strategic
0.0411546487	later on
0.0411541813	the use of non
0.0411531048	sparsification of
0.0411481717	a sketch
0.0411444161	a significant increase
0.0411442490	not only provides
0.0411434707	for controlling
0.0411362513	the theoretical guarantees
0.0411321856	popular due to
0.0411288594	the art performance of
0.0411276253	in contrast to conventional
0.0411272509	all code
0.0411255820	the general theory
0.0411235784	detectability of
0.0411225475	a tremendous amount of
0.0411203575	by alternating
0.0411171396	the function class
0.0411111608	results on various
0.0411099080	this package
0.0411072286	generalization compared to
0.0411005526	a commercial
0.0410988813	decomposition with
0.0410980739	to take advantage of
0.0410973372	any prediction
0.0410958282	a new interpretation
0.0410952287	deep learning models for
0.0410926306	new sampling
0.0410906244	a state
0.0410903873	theoretical analysis for
0.0410876959	approaches on several
0.0410826629	the paper introduces
0.0410758787	popular way to
0.0410700373	along with other
0.0410661104	the earth
0.0410593226	to sequence learning
0.0410576969	in lieu of
0.0410561997	need of
0.0410542526	generative modeling of
0.0410502519	on whether
0.0410486894	the network to learn
0.0410427147	communities from
0.0410376137	the skip
0.0410288270	this pipeline
0.0410286018	to corrupt
0.0410248409	structure learning for
0.0410237802	a locally
0.0410227643	methods on several
0.0410195774	pruning via
0.0410152199	a diffusion
0.0410131667	measures over
0.0410124767	this short
0.0410105577	a new layer
0.0410077196	a hidden
0.0410063629	the expectation of
0.0410062582	the strengths of
0.0410059718	gcn models
0.0410056719	the variational information
0.0410021414	the first convergence
0.0410006271	thought of
0.0409905587	this need
0.0409877472	while matching
0.0409816730	the proposal distribution
0.0409798764	novel method
0.0409790558	expected regret of
0.0409722956	the subspace spanned by
0.0409714942	required in
0.0409631110	hierarchical structure in
0.0409627346	a novel active
0.0409621603	this relaxation
0.0409612719	used in other
0.0409562411	\ sigma \
0.0409561187	baseline methods on
0.0409556269	the variational posterior
0.0409556269	the student network
0.0409549039	fundamental problem of
0.0409515782	the international
0.0409506626	net with
0.0409461871	a sequential decision
0.0409395809	conditional probability of
0.0409332550	variables into
0.0409313784	step by
0.0409310057	for addressing
0.0409304225	the same performance as
0.0409300725	a distributed learning
0.0409298729	the generalization ability of
0.0409242304	underlying structure of
0.0409232066	the existence of adversarial
0.0409190743	the generalization gap
0.0409147377	graph representation of
0.0409070551	specific models
0.0409068180	problem by using
0.0409066939	this method in
0.0409052450	the problem of domain
0.0409051724	the density of
0.0409046538	$ n = \
0.0409046060	same domain
0.0409045988	novel metric
0.0409029132	a novel procedure
0.0409003015	high cost of
0.0408816269	a novel distributed
0.0408781025	especially deep neural
0.0408776329	the amount of available
0.0408775763	in order to test
0.0408763379	users over
0.0408759446	gradient with respect to
0.0408742309	process mixture models
0.0408694378	the equivalent
0.0408645640	mdp with
0.0408614863	a training set of
0.0408611391	not change
0.0408604496	expected reward of
0.0408545431	the problem of sampling
0.0408531373	usually based on
0.0408497521	novel analysis
0.0408432604	query by
0.0408428546	the destination
0.0408412787	premise of
0.0408387886	a compelling
0.0408351565	second level
0.0408334219	the statistical model
0.0408304538	an important class
0.0408280656	by decreasing
0.0408277984	not independent
0.0408253978	in order to evaluate
0.0408167119	the local structure of
0.0408157044	the deep model
0.0408128031	a novel way
0.0408107968	the first application
0.0408101135	of such problems
0.0408091344	a condition
0.0408041122	both qualitatively
0.0408027515	scale datasets with
0.0407948926	a linearized
0.0407941185	the connection between
0.0407938407	both computational
0.0407902143	the number of tasks
0.0407884932	affect both
0.0407830838	the fluid
0.0407816883	by playing
0.0407816883	by deploying
0.0407785882	to pass
0.0407777705	a bottleneck
0.0407729524	model selection with
0.0407716658	both real world and
0.0407716590	a generalisation
0.0407692895	improve on
0.0407676762	the feature map
0.0407667954	graphical model for
0.0407632309	the linear convergence
0.0407604296	a novel algorithmic
0.0407584500	distributed algorithm for
0.0407575073	empirical success of
0.0407569727	the granularity
0.0407564588	a new open
0.0407497292	models offer
0.0407427949	a rich source of
0.0407420544	the equality
0.0407366569	as well as for
0.0407343622	a modern
0.0407311062	more heterogeneous
0.0407304708	the competence
0.0407239456	convergence under
0.0407209850	a system of
0.0407171502	made on
0.0407158564	a new theoretical
0.0407149603	the same image
0.0407142203	the reach of
0.0407132827	the lack of interpretability
0.0407085747	separately from
0.0407057375	each latent
0.0407056472	a counterfactual
0.0407035217	possible due to
0.0406990956	the same or
0.0406987573	a stochastic gradient
0.0406985912	known to achieve
0.0406967860	learning algorithms like
0.0406949518	in tandem with
0.0406929978	both time
0.0406859380	effort to
0.0406843196	the causal model
0.0406807804	on different datasets
0.0406785391	a discussion
0.0406724741	way for
0.0406673412	a new objective
0.0406630523	a novel non
0.0406613895	the asymptotic behavior
0.0406605009	the next time
0.0406589859	\ o
0.0406558721	this general framework
0.0406499020	in particular in
0.0406499020	the part of
0.0406433621	a new form
0.0406410913	the learning efficiency
0.0406353697	the computational costs
0.0406238984	the first contribution
0.0406193195	cluster structure of
0.0406176306	any information
0.0406173182	identified with
0.0406165044	on two publicly available
0.0406116240	estimation methods for
0.0406055797	often suffers from
0.0406044874	a good performance
0.0405997005	linear transformation of
0.0405993238	new distance
0.0405985143	problem associated with
0.0405900343	phenomenon of
0.0405871229	without loss of
0.0405842657	note on
0.0405807347	common problem in
0.0405800664	the efficiency and robustness
0.0405767293	incremental learning for
0.0405730744	a disentangled
0.0405723711	networks trained using
0.0405657810	far as
0.0405631606	the desirable properties
0.0405622750	challenging task due to
0.0405615449	the first polynomial time
0.0405547357	underlying dynamics of
0.0405541678	most machine
0.0405529884	the error bound
0.0405528471	a more compact
0.0405441750	the goodness
0.0405398051	this attack
0.0405246352	the severity
0.0405239231	trained through
0.0405238528	a truly
0.0405211046	the iteration complexity
0.0405206591	a variation of
0.0405206528	one promising
0.0405202000	the system in
0.0405164243	the art in many
0.0405162573	only during
0.0405135948	against existing
0.0405102497	start to
0.0405070354	the age of
0.0405034472	except in
0.0405020677	m \ times n
0.0404968108	topic models for
0.0404959942	tuned for
0.0404947946	a variety of problems
0.0404917852	promising performance of
0.0404916810	the new state
0.0404911335	to cast
0.0404890625	a fast convergence
0.0404890561	a stacked
0.0404889488	large datasets with
0.0404832353	the learning from
0.0404813870	source code of
0.0404813623	potential to
0.0404798899	the ability to identify
0.0404720740	to model misspecification
0.0404612953	recently proposed for
0.0404546699	an f
0.0404529981	the two approaches
0.0404502604	prediction performance on
0.0404444717	the community detection
0.0404414971	construction of such
0.0404390160	algorithm does not
0.0404385640	novel algorithm called
0.0404382196	by fitting
0.0404358501	the determinant
0.0404345410	a novel reinforcement
0.0404248605	equipped to
0.0404233342	mixture model with
0.0404217970	course of training
0.0404199045	the noise model
0.0404193317	a first
0.0404181431	a focus
0.0404156634	to new environments
0.0404154252	compromising on
0.0404102073	generalization performance in
0.0404099413	other properties
0.0404057918	then developed
0.0404029545	general approach for
0.0403974919	the vulnerability of
0.0403971882	absolute error of
0.0403949753	to confirm
0.0403938869	too complex to
0.0403854187	suite for
0.0403796348	the novelty of
0.0403737126	a simple neural
0.0403724041	new test
0.0403715014	the estimation errors
0.0403596586	a doubly
0.0403558829	used for feature
0.0403557490	a state space
0.0403541822	for training large
0.0403539349	instead of learning
0.0403527980	a set of benchmark
0.0403426798	in \ mathbb r ^ p
0.0403366879	$ k \ in
0.0403347505	to cart
0.0403290616	to depend
0.0403272075	\ tau \
0.0403247113	a standard gaussian
0.0403234853	such as object detection
0.0403234298	do not depend
0.0403227602	the suitability
0.0403201358	inner product of
0.0403172347	investigated by
0.0403124778	interesting to
0.0403123258	a bound on
0.0403071661	described using
0.0403041261	under assumptions
0.0402987830	the changes in
0.0402983287	final layer of
0.0402948053	the power of deep
0.0402943011	widely used in many
0.0402930505	certain applications
0.0402904506	used to characterize
0.0402886194	for crafting
0.0402885162	to adapt to
0.0402863691	many computer
0.0402848378	the width of
0.0402809538	architecture search by
0.0402788305	the recent success of deep
0.0402780149	both transductive
0.0402779181	a significant amount of
0.0402776888	to adversarial perturbations
0.0402737690	and irregularly
0.0402722843	such cases
0.0402648332	better local
0.0402633438	in many machine learning applications
0.0402547762	the overall system
0.0402431019	an analytically
0.0402430094	a new active
0.0402392576	a class of functions
0.0402385907	not received
0.0402380486	a discount
0.0402374933	computed as
0.0402345051	the system performance
0.0402342353	likelihood than
0.0402342017	a larger set of
0.0402320471	\ mathbb r ^ k \
0.0402255143	many application
0.0402189802	extended by
0.0402177870	such as topic
0.0402035827	a root
0.0402034661	a euclidean
0.0402025642	state space models with
0.0402025002	a linear function of
0.0401983377	available to
0.0401971915	a live
0.0401928028	bayesian models for
0.0401881659	a novel approach called
0.0401852649	probability under
0.0401759668	the first part of
0.0401759203	case study on
0.0401750272	good solution
0.0401711396	for validating
0.0401692481	that none of
0.0401610979	previous work in
0.0401567118	linear complexity in
0.0401562872	truncation of
0.0401560211	the application of machine learning
0.0401550021	a model in
0.0401544398	theoretically well
0.0401536197	for large problems
0.0401519042	the method works
0.0401498840	a good approximation
0.0401470303	general theory for
0.0401379856	effort on
0.0401376222	for graph data
0.0401372751	paper aims to
0.0401300992	and more effective
0.0401286453	this flexibility
0.0401265369	learning process to
0.0401244262	the existing works
0.0401136390	several synthetic
0.0401123868	a speaker
0.0401098271	approximate solution of
0.0401092310	$ k \
0.0401028672	the average accuracy
0.0401016680	a widely
0.0400979962	some measure
0.0400973308	the local geometry of
0.0400949160	both predictive
0.0400943616	the columns of
0.0400917592	used to automatically
0.0400913924	a social
0.0400912690	discriminator as
0.0400866952	the fragility
0.0400863716	classification task with
0.0400805984	prediction performance in
0.0400777645	spectrogram of
0.0400719241	some advantages
0.0400702455	to observe
0.0400622977	learning techniques for
0.0400593415	while incorporating
0.0400572512	way to evaluate
0.0400542526	recent research in
0.0400539295	span of
0.0400532362	rate than
0.0400505227	an ability
0.0400479445	the same amount of
0.0400462470	the resulting approach
0.0400439431	a new class
0.0400431438	a generalized linear
0.0400411097	both spatial and temporal
0.0400404649	respectively with
0.0400368594	the error rates
0.0400362360	the expected performance
0.0400349408	a new domain
0.0400221636	the test accuracy
0.0400166433	a number of datasets
0.0400129798	in statistics and machine learning
0.0400114671	an accuracy
0.0400104389	a piece
0.0400030311	a hybrid deep
0.0399895553	do not rely
0.0399845196	generates more
0.0399754807	the adversarial robustness
0.0399751908	function with respect to
0.0399656183	to access
0.0399652537	the presence of latent
0.0399583918	the intensive care
0.0399505946	a total
0.0399485600	the cyber
0.0399430226	most real
0.0399416960	a global linear
0.0399407944	a method called
0.0399398906	no performance
0.0399374762	distribution of interest
0.0399335790	design of new
0.0399283275	both issues
0.0399282534	tandem with
0.0399276036	propensity to
0.0399272439	design of novel
0.0399267130	a new general
0.0399241143	or whether
0.0399216378	a certain number of
0.0399190112	on two popular
0.0399158726	for sparse graphs
0.0399147377	prediction model for
0.0399130929	policy learning in
0.0399116854	a variety of challenging
0.0399114064	log \
0.0399074115	network model with
0.0399051724	the smoothness of
0.0399051724	the significance of
0.0399051724	the landscape of
0.0399051724	the dependence of
0.0399029499	hull of
0.0399029052	the shuffle
0.0398997747	the art algorithm for
0.0398977710	used to illustrate
0.0398965539	high accuracy on
0.0398954593	a variety of existing
0.0398910878	two different datasets
0.0398899744	decision boundary of
0.0398886382	a constant number
0.0398878258	the plausibility
0.0398855049	the relative merits of
0.0398754072	\ le \
0.0398688653	for graph generation
0.0398608089	amount of computation
0.0398601978	the robustness against
0.0398595699	statistical inference for
0.0398580932	publicly available on
0.0398569311	code at
0.0398529844	to possess
0.0398506641	the rate of
0.0398491901	the art by
0.0398466036	both high
0.0398428936	of up to
0.0398419115	the fundamental problem
0.0398413298	based on recent advances in
0.0398317564	$ k = \
0.0398291444	solved to
0.0398265259	a growing interest in
0.0398241744	or no
0.0398179572	systems do not
0.0398158304	widely used to
0.0398138571	ensemble learning with
0.0398101135	of other methods
0.0398019867	often need to
0.0397987791	little or
0.0397978934	a proximal
0.0397972666	with respect to state of
0.0397932499	the same objective
0.0397892028	the first such
0.0397886849	a collection of data
0.0397849584	a cross
0.0397819582	novel kernel
0.0397801946	the other two
0.0397771618	some prior
0.0397694390	the most popular and
0.0397656503	the distinction
0.0397602755	data in order to
0.0397514451	to perform efficient
0.0397510619	both in expectation
0.0397422776	the foundational
0.0397414897	different subsets of
0.0397408804	a penalty
0.0397371516	models for prediction
0.0397345753	used to develop
0.0397345060	the presence of adversarial
0.0397344968	the spectral gap
0.0397207969	separate from
0.0397200775	at detecting
0.0397104234	a set of variables
0.0397071135	to outperform
0.0397067311	a priori knowledge of
0.0397065263	on three datasets
0.0397057411	posterior mean and
0.0397046897	a few training
0.0397006495	search via
0.0397005626	a special class of
0.0397005626	a specific type of
0.0396999686	able to derive
0.0396999607	to emphasize
0.0396946229	also facilitates
0.0396916083	freedom of
0.0396887110	the characteristics of
0.0396881088	this guarantee
0.0396872733	a modified version of
0.0396872107	guarantee under
0.0396822608	this method achieves
0.0396730817	data provided by
0.0396726039	adaptive version of
0.0396719422	of prediction with expert advice
0.0396704251	a pool of
0.0396704251	the spirit of
0.0396698707	revealed to
0.0396649737	most deep learning
0.0396613253	the full network
0.0396582117	to record
0.0396562582	rounds with
0.0396557499	a rejection
0.0396499795	and statistically efficient
0.0396447672	the conjugate gradient
0.0396444161	available on
0.0396407966	consensus on
0.0396394927	interactions over
0.0396370389	used to show
0.0396305249	also able
0.0396275951	assessed with
0.0396167119	a fast algorithm for
0.0396144648	models trained on
0.0396131041	further insights
0.0396082419	a neural architecture
0.0396076712	then combines
0.0396045024	all available data
0.0395977023	of smoking
0.0395931606	reconstruction error of
0.0395869769	the optimal value
0.0395844543	a markov decision
0.0395836372	need for expensive
0.0395833129	the outstanding performance
0.0395764973	the standard linear
0.0395749693	the adult
0.0395719552	and better performance
0.0395673752	the system to
0.0395591344	a regret
0.0395520195	question by
0.0395514827	of over parameterization
0.0395511979	a batch
0.0395496771	given sentence
0.0395491898	a novel variational
0.0395465312	the theoretical analysis
0.0395433327	a set of simple
0.0395363997	series data from
0.0395347556	this development
0.0395296993	the root cause
0.0395285459	not designed
0.0395281989	configuration for
0.0395258257	the projective
0.0395253767	such as gender or
0.0395183754	6 \
0.0395162013	main result of
0.0395160302	in accordance with
0.0395135933	in several ways
0.0395111965	a convergent
0.0395057382	in theory and practice
0.0395044408	a method to learn
0.0395018213	the number of data
0.0395014586	improve generalization in
0.0394974572	such analyses
0.0394917925	the count
0.0394915019	open problem in
0.0394875658	optimization problem at
0.0394866818	the proliferation
0.0394862873	a natural generalization
0.0394851797	time series from
0.0394846202	selection bias in
0.0394835744	established by
0.0394813246	the dot
0.0394767262	model parameters from
0.0394754174	also construct
0.0394746763	this approach in
0.0394728663	and so
0.0394723843	means for
0.0394714674	robust with respect to
0.0394696531	a high number of
0.0394693399	to coordinate
0.0394678574	a variational inference
0.0394663630	the same data
0.0394624257	in order to validate
0.0394608501	the weakness
0.0394598712	not limited
0.0394550373	modalities such as
0.0394519750	root of
0.0394510438	and pre trained models
0.0394487434	useful to
0.0394485250	the empirical study
0.0394482926	a linear convergence
0.0394471031	a novel efficient
0.0394439887	both types
0.0394422373	not admit
0.0394407124	any model
0.0394353899	approximation error of
0.0394339686	the topological structure
0.0394297362	a surge of interest in
0.0394251984	the use of deep
0.0394247262	the context of classification
0.0394235136	than alternative
0.0394213015	the implications of
0.0394213015	a comparison of
0.0394213015	the difference in
0.0394181247	the same latent
0.0394148748	measure over
0.0394133688	to obtain accurate
0.0394132941	a novel federated
0.0394122455	two standard
0.0394088959	the main focus of
0.0394086560	the actual data
0.0394075300	a margin
0.0394017445	network model for
0.0393897098	the art baselines on
0.0393824763	the inference model
0.0393823987	for one class
0.0393804925	diagnosis from
0.0393782186	algorithms as well
0.0393754072	\ approx \
0.0393741300	a life
0.0393672485	on three benchmark
0.0393660005	the sharpness
0.0393652762	this link
0.0393641250	only very few
0.0393624767	two large
0.0393580633	the performance of existing
0.0393489195	a systematic review of
0.0393448777	such as recommender systems
0.0393406426	each part of
0.0393375815	the distribution of data
0.0393352796	between two random
0.0393240648	the main purpose of
0.0393235338	the most widely
0.0393122890	this effort
0.0393108472	other machine learning models
0.0393064474	to perform classification
0.0393039171	to earlier
0.0393008089	between two points
0.0392958978	reward over
0.0392957706	in many different
0.0392930053	a density
0.0392898966	k means for
0.0392887640	not only do
0.0392856699	the inclusion of
0.0392819839	approximated as
0.0392777754	a heavy
0.0392734904	applications in many
0.0392729917	a novel formulation
0.0392684914	a transductive
0.0392672164	a principal
0.0392639015	made available to
0.0392627421	a real data
0.0392621751	and never
0.0392589013	the adaptive learning
0.0392557918	any parameter
0.0392555813	location of
0.0392542258	the original time series
0.0392536485	for such models
0.0392509323	trains models
0.0392483437	parameter selection for
0.0392468213	a given model
0.0392466067	gradient algorithm for
0.0392442546	learning task in
0.0392400272	the impact on
0.0392371591	updated with
0.0392343282	the performance of deep neural networks
0.0392332174	of various sizes
0.0392307209	both batch
0.0392287399	these loss
0.0392236394	the summation
0.0392203133	the intuition behind
0.0392196143	system for
0.0392188560	gradient estimators for
0.0392186292	the expected number of
0.0392186292	a common problem in
0.0392164965	a boolean
0.0392159659	novel objective
0.0392127737	algorithms on several
0.0392108963	an efficient sampling
0.0392100161	queries to
0.0392071764	constant factor of
0.0392035392	the ability to learn
0.0392005626	a wider class of
0.0391971821	the existence and uniqueness
0.0391946586	the rising
0.0391912099	constants for
0.0391907044	the transition model
0.0391901903	an effective solution to
0.0391894061	to further increase
0.0391892308	the aid
0.0391783275	an operation
0.0391769507	common way
0.0391701131	test set of
0.0391672933	the point of view
0.0391649590	a hospital
0.0391582764	a convergence rate
0.0391550171	such as computer vision
0.0391531793	of other agents
0.0391501994	of two steps
0.0391471192	example application
0.0391413938	a data structure
0.0391379856	quantity for
0.0391379322	certain properties
0.0391332585	over time in
0.0391326571	few features
0.0391325946	even better than
0.0391242714	transformer with
0.0391205207	the fundamental limits
0.0391062277	novel objective function
0.0391042452	this position
0.0391010687	the stochastic approximation
0.0390955378	an l1
0.0390934165	the same graph
0.0390912787	nonnegative models
0.0390839020	both positive
0.0390839020	both short
0.0390839020	both speed
0.0390836284	both discrete
0.0390767967	even for small
0.0390761770	neurons from
0.0390751250	assumed in
0.0390743570	three standard
0.0390724585	then learns
0.0390702752	the traveling
0.0390697417	format for
0.0390672562	the weight vector
0.0390564879	gain from
0.0390507446	the early detection
0.0390478151	able to give
0.0390421389	a number of approaches
0.0390398548	general problem of
0.0390335228	review on
0.0390304278	this paper provides
0.0390302625	the same number
0.0390262706	the availability of data
0.0390257994	an error rate
0.0390189393	model selection via
0.0390119833	and then train
0.0390106717	the classification model
0.0390099620	decomposition via
0.0390096909	models such as deep neural networks
0.0390086026	on various image
0.0390081425	this manner
0.0390054826	a cohort
0.0389995531	improve performance in
0.0389972650	model performance in
0.0389877994	an adversarially
0.0389828483	network as well
0.0389759210	of freedom
0.0389684782	a novel self
0.0389586243	explanations from
0.0389577944	the system as
0.0389570158	a way of
0.0389562395	effect using
0.0389535930	on simulated and real datasets
0.0389515045	the volume of
0.0389485974	the method performs
0.0389484793	the probability distributions
0.0389457885	the euclidean space
0.0389450728	the number of training data
0.0389425785	parallelization of
0.0389418395	the generalizability
0.0389418395	the dna
0.0389407359	an identical
0.0389363197	an optimal algorithm for
0.0389343257	the reward functions
0.0389341601	useful for understanding
0.0389315691	a new kind of
0.0389300559	available from
0.0389261391	layer into
0.0389225820	best way
0.0389223929	a range of datasets
0.0389202805	a training method
0.0389175990	augmentation using
0.0389097331	the needs of
0.0389088942	single set of
0.0389051724	the inverse of
0.0389043092	works with
0.0389029915	the main results
0.0388960795	also holds
0.0388956423	a budget
0.0388927617	the side information
0.0388920905	posterior inference in
0.0388919042	an algorithm based
0.0388860283	the samples in
0.0388693257	the start of
0.0388689339	networks suffer from
0.0388657623	in such models
0.0388544089	some training
0.0388528142	such as variational autoencoders
0.0388461236	the spectral gap of
0.0388426755	\ r
0.0388416409	coreset of
0.0388350692	a more detailed
0.0388311502	information leakage of
0.0388292964	corresponding to different
0.0388289174	the behavior policy
0.0388275002	a probabilistic framework for
0.0388262403	contribution from
0.0388250767	sets from different
0.0388217422	a significant role in
0.0388214819	for describing
0.0388200936	this work focuses
0.0388200775	at identifying
0.0388179280	the interaction between
0.0388175136	used extensively in
0.0388165687	this method for
0.0388165687	the access to
0.0388153581	method applicable to
0.0388123882	the rows and columns
0.0387999846	at recovering
0.0387922710	the presence of large
0.0387818514	this work shows
0.0387785240	a single type of
0.0387727876	this novel
0.0387653675	a feasible
0.0387651048	architecture search with
0.0387640462	the context of deep
0.0387613253	step in many
0.0387612320	of neural activity
0.0387569276	the other state of
0.0387568090	the performance measure
0.0387427086	a set of parameters
0.0387410801	on two datasets
0.0387382404	models with gaussian
0.0387365713	a divergence
0.0387362368	a novel strategy
0.0387337108	a growing number
0.0387285316	non convex models
0.0387239456	error under
0.0387213629	used in variational
0.0387129985	adversarial robustness of
0.0387041183	a novel task
0.0387037838	series from
0.0386990956	these models on
0.0386973564	in terms of quality
0.0386894657	zone of
0.0386884591	modeling via
0.0386880784	a general model
0.0386821884	of two different
0.0386797362	possible to use
0.0386774663	* \
0.0386728640	as features in
0.0386701357	used in applications
0.0386629196	a better accuracy
0.0386611965	the upcoming
0.0386598524	a flexible framework for
0.0386594911	a novel recurrent
0.0386586221	$ i \
0.0386549924	the compactness
0.0386544421	a memory
0.0386536697	provably more
0.0386479545	the discrepancy between
0.0386467256	the previously learned
0.0386443419	proposed algorithm on
0.0386357478	loss surface of
0.0386310413	the geometric structure
0.0386304406	a powerful framework for
0.0386288324	a dataset containing
0.0386284072	probabilistic models for
0.0386248369	better theoretical
0.0386235143	challenging problem of
0.0386227691	selected as
0.0386192148	associated with different
0.0386114966	the recovery error
0.0386067534	a context
0.0386059477	a resnet
0.0386027083	the sparse structure
0.0385988551	the other models
0.0385980417	cost compared to
0.0385951516	little computational
0.0385931582	\ mathbb e \
0.0385905103	of various types
0.0385866811	the meaning of
0.0385815331	the upper bound of
0.0385757859	the problem of classification
0.0385721031	the same structure
0.0385691675	likelihood estimation of
0.0385688240	the subject of
0.0385620242	two frameworks
0.0385611313	the number of epochs
0.0385605680	good candidate
0.0385597057	acceleration for
0.0385564819	a kernel density
0.0385545891	three variants of
0.0385458978	performs at
0.0385427147	decreases with
0.0385377975	the model does
0.0385368221	for two different
0.0385359380	intractable to
0.0385258176	on two public
0.0385234201	a step
0.0385178095	optimal in terms of
0.0385142029	the average treatment
0.0385114239	particularly useful for
0.0385096348	a structured prediction
0.0384970388	the task of learning
0.0384969569	also evaluated
0.0384824025	by gradually
0.0384789500	the data collected
0.0384783574	training framework for
0.0384767314	descent methods for
0.0384765108	the similarity measure
0.0384760755	the second method
0.0384692287	both theoretically
0.0384659095	under regularity
0.0384652311	the human visual
0.0384639648	performance on various
0.0384638582	the versatility
0.0384630684	environments such as
0.0384543604	to arrive at
0.0384530664	common approach for
0.0384483919	signals into
0.0384460495	multidimensional time
0.0384443023	well as with
0.0384368387	convolutional network with
0.0384361067	the context of machine
0.0384297362	a systematic way to
0.0384284570	a limitation
0.0384282493	both unsupervised
0.0384279705	this approach with
0.0384271145	two novel algorithms
0.0384175990	exponent of
0.0384146139	supervision by
0.0384144877	on cifar 100 and
0.0384109862	stationary distribution of
0.0384057918	some observed
0.0384032921	different physical
0.0383999896	the model as
0.0383995195	experiments on cifar 10 and
0.0383992935	a low computational
0.0383982453	the method for
0.0383847742	contrast to other
0.0383827771	a car
0.0383745977	to extract information
0.0383732928	team of
0.0383730592	a powerful approach
0.0383685962	the gradient estimator
0.0383670255	high accuracy in
0.0383664879	from information theory
0.0383657623	the interest in
0.0383654133	both in terms
0.0383594568	a constant fraction of
0.0383520534	often relies
0.0383477941	machine learning models on
0.0383354748	to use deep
0.0383346911	of the \ emph
0.0383342657	connectivity from
0.0383327633	in various domains
0.0383267699	this new class
0.0383149837	a closer
0.0383003497	the best fitting
0.0383003419	the burden
0.0382970877	the special case of
0.0382920146	problem in terms of
0.0382907058	both accuracy
0.0382785153	with significantly lower
0.0382724552	new parameter
0.0382687659	\ eta \
0.0382662914	the two domains
0.0382640462	in terms of computation
0.0382636390	often computationally
0.0382613946	surely to
0.0382506573	an aggregation
0.0382506573	from past
0.0382473596	a recent surge of interest in
0.0382468209	the optimization procedure
0.0382456583	crucial task in
0.0382451845	at capturing
0.0382429129	efficient algorithm with
0.0382373040	used on
0.0382341055	experiments across
0.0382336151	significant challenge in
0.0382234079	classification performance for
0.0382229894	trains on
0.0382189802	sampled by
0.0382137525	used for solving
0.0382092905	the world wide
0.0382075606	used to capture
0.0382058598	the corresponding optimization
0.0382015897	well on
0.0381971915	a lattice
0.0381908784	always available
0.0381884853	two competing
0.0381862513	the superior performance
0.0381837381	applicable to different
0.0381728433	such as principal
0.0381683872	consists of several
0.0381673367	synthetic datasets with
0.0381656930	to reformulate
0.0381642383	the learned embedding
0.0381624135	capacity to
0.0381603828	predictions under
0.0381547472	model with respect to
0.0381526205	regret in terms of
0.0381521105	first step towards
0.0381500452	a constant number of
0.0381487284	instead of using
0.0381471192	particular type
0.0381462176	technique to find
0.0381380682	assessment for
0.0381377792	a standard neural
0.0381368327	the change of
0.0381348969	a number of machine
0.0381336791	an upper bound of
0.0381297017	likelihood function of
0.0381209845	linear time in
0.0381062395	scans of
0.0381045942	each other to
0.0381045024	in such situations
0.0381031733	known as adversarial
0.0381003550	no loss in
0.0380955782	a supervised way
0.0380945654	the representations learned
0.0380911239	the random features
0.0380853352	the predictive performance
0.0380763574	injection of
0.0380754280	better than other
0.0380753714	the effective number of
0.0380751908	this form
0.0380711284	only apply
0.0380687265	without access to
0.0380592280	structures such as
0.0380576791	alternative way of
0.0380550618	a number of samples
0.0380545891	the true value
0.0380542636	the performance improvement
0.0380526950	the security of
0.0380525920	types such as
0.0380523688	art methods such as
0.0380502130	recently proposed in
0.0380377110	from very few
0.0380290201	faster convergence of
0.0380286664	the convergence properties
0.0380265234	extended from
0.0380213379	the case study
0.0380198853	analysis as well
0.0380153252	the most robust
0.0380108549	problems in machine learning and
0.0380064150	model selection by
0.0380063953	sub linear in
0.0379977820	regret over
0.0379970046	first order methods for
0.0379897923	network models for
0.0379888366	the posterior approximation
0.0379816918	an informative
0.0379806619	or comparable
0.0379691334	the first computationally
0.0379690085	still far
0.0379671063	the system of
0.0379671063	the latter to
0.0379655888	this fundamental
0.0379651192	the linear quadratic
0.0379643924	model capable of
0.0379529026	the performance gap
0.0379514266	most responsible for
0.0379484389	challenges due
0.0379451428	only needs to
0.0379429271	a robust model
0.0379405101	does not only
0.0379399391	the same model
0.0379388302	a linear regression
0.0379351772	decide on
0.0379266331	not tailored
0.0379208575	by product of
0.0379151584	the newly proposed
0.0379139545	a particular class
0.0379095522	information flow in
0.0379051724	the bias of
0.0378991385	models in order
0.0378968871	the story
0.0378966794	the improved performance
0.0378930072	models for image
0.0378923400	graph into
0.0378920521	to receive
0.0378822203	become increasingly popular in
0.0378776571	the approach to
0.0378765205	a graphical
0.0378758017	the first fully
0.0378754072	\ rho \
0.0378686117	to corroborate
0.0378684351	to predict whether
0.0378672290	a standard approach
0.0378645640	invariance with
0.0378594414	gradient algorithm with
0.0378537331	allows to learn
0.0378520739	the rise of deep
0.0378512726	solution space of
0.0378506641	the solution to
0.0378470516	performance of different
0.0378462919	the joint probability
0.0378462811	a prevalent
0.0378453573	the maximum number of
0.0378387740	a convex combination of
0.0378342657	coding models
0.0378319331	other classical
0.0378302025	both training and
0.0378289174	the normal data
0.0378281530	the probability distribution of
0.0378247526	phase transition in
0.0378217155	by interacting
0.0378209345	influence of different
0.0378074719	a more efficient
0.0378042300	unsupervised training of
0.0378041290	properties like
0.0378027980	important yet
0.0378014191	allow for efficient
0.0377916913	deep learning models with
0.0377890341	not capable
0.0377885507	approximation error for
0.0377882227	a specificity
0.0377848705	learning algorithm using
0.0377827050	less than or
0.0377807085	in most real world
0.0377805132	perform at
0.0377732231	agent system
0.0377706309	used to support
0.0377675928	the art techniques for
0.0377568090	the entire data
0.0377540553	a commonly used
0.0377524924	the informativeness
0.0377489017	the information loss
0.0377466053	key features of
0.0377438463	small part
0.0377436208	on two key
0.0377400272	the prior work
0.0377390833	a pool
0.0377382515	used in previous
0.0377372801	predictions than
0.0377303088	a new kernel
0.0377264468	the implementation of
0.0377248219	the second contribution
0.0377230138	the posterior distributions
0.0377183239	a sparse linear
0.0377152035	the presence of missing
0.0377106004	good classification
0.0376987329	side information in
0.0376985627	a new bayesian
0.0376924556	while accounting for
0.0376910266	to provide insights
0.0376891448	any knowledge of
0.0376862513	the adversarial attack
0.0376846733	a portion
0.0376703611	the use of neural networks
0.0376686117	for reconstructing
0.0376676570	problems of interest
0.0376650266	a new generative model
0.0376465497	based approaches for
0.0376445741	features used in
0.0376411572	associations with
0.0376407955	between neurons
0.0376389942	novel framework
0.0376360403	for imputing
0.0376295863	used for inference
0.0376285909	particularly useful in
0.0376251347	the performance of machine learning
0.0376216813	a use case
0.0376183205	the correlation structure
0.0376104907	the heterogeneity of
0.0375982358	the onset of
0.0375977949	able to adapt to
0.0375967504	no distributional
0.0375963030	work builds
0.0375892628	this assumption does not
0.0375822823	often than
0.0375699160	not adapt
0.0375695848	the rise of
0.0375671945	from scratch for
0.0375490172	the negative log
0.0375489578	also referred
0.0375468116	optimization problem using
0.0375457603	the context of large
0.0375434562	the state distribution
0.0375388615	the art methods with
0.0375375543	a significant problem
0.0375347007	recent development of
0.0375322137	the necessity of
0.0375296682	comparable to other
0.0375267055	between two sets
0.0375228357	probability distribution on
0.0375202000	and also in
0.0375181459	\ frac \
0.0375176748	by assessing
0.0375176748	both public
0.0375162573	only possible
0.0375153475	prior distribution on
0.0375146899	a correct
0.0375143250	the system under
0.0375122106	this class of
0.0375031744	with very low
0.0375020143	chosen as
0.0375020130	the full training
0.0374943196	a physical
0.0374934579	interest in recent
0.0374932724	linear rate of
0.0374877204	$ l \
0.0374866012	a saddle
0.0374854701	the lasso estimator
0.0374832879	one reason for
0.0374823362	both static
0.0374793822	fundamental task in
0.0374773335	a general theory of
0.0374761616	component of many
0.0374722261	the correct number of
0.0374675644	$ o \
0.0374659095	not degrade
0.0374655240	selection under
0.0374621630	many queries
0.0374591760	particular choice
0.0374590907	collected using
0.0374516679	a policy gradient
0.0374488388	also leads
0.0374465862	and more importantly
0.0374377374	policy search with
0.0374366569	as well as in
0.0374358491	regression problem in
0.0374325708	no more than
0.0374317765	time series with
0.0374298270	return to
0.0374288378	1 ^ n
0.0374282493	only works
0.0374282493	both accurate
0.0374282493	both binary
0.0374213015	a sample of
0.0374213015	the speed of
0.0374167249	the policy evaluation
0.0374138419	a very limited
0.0374087834	direction method of
0.0374057918	via estimating
0.0374041164	as well as more
0.0374032493	any form
0.0373963168	the function approximation
0.0373883237	the posterior mean
0.0373796348	the identity of
0.0373728737	in machine learning with
0.0373633435	a given data
0.0373577477	either based on
0.0373538848	the most commonly
0.0373531538	accuracy and efficiency of
0.0373523919	both qualitative
0.0373498299	the merit
0.0373491385	to other algorithms
0.0373477941	rate of convergence of
0.0373379913	or greater
0.0373375522	the intent of
0.0373329156	do so in
0.0373226163	also highly
0.0373168440	both industry and
0.0373165507	than other methods
0.0373151555	this transformation
0.0373150251	this line
0.0373149837	to surpass
0.0373139807	function used in
0.0373082801	the temporal information
0.0373079278	only based on
0.0373069908	good clustering
0.0373039224	the prohibitive
0.0373012269	the model to
0.0372994104	efficient approach for
0.0372937646	the objective to
0.0372878357	these two approaches
0.0372848378	the hessian of
0.0372822356	allow more
0.0372760184	simple algorithm for
0.0372693738	the attack success
0.0372586718	the real time
0.0372562582	the basis for
0.0372513137	due to privacy
0.0372434912	surrogate models for
0.0372407448	optimization method to
0.0372406165	this comparison
0.0372366274	the optimal statistical
0.0372326712	many steps
0.0372323212	to use in
0.0372323115	compared to several
0.0372299519	more human
0.0372285833	performs on
0.0372263131	a reinforcement
0.0372225092	provides insights into
0.0372209632	efficiency and accuracy of
0.0372188811	explanation by
0.0372159659	better computational
0.0372122982	dynamics via
0.0371925534	used to provide
0.0371921608	able to approximate
0.0371844517	in general and
0.0371816672	the gaussian distribution
0.0371761615	a variety of common
0.0371725820	the values of
0.0371689072	the available data
0.0371681108	extractor for
0.0371597971	non trivial to
0.0371582650	with up to
0.0371560014	to effectively learn
0.0371498797	novel algorithm
0.0371459593	only make
0.0371427147	distances from
0.0371248527	very different from
0.0371204916	important for many
0.0371175779	class of interest
0.0371125154	the same problem
0.0371123408	both labeled and
0.0371088361	used as features
0.0371082879	does so by
0.0370997111	for correcting
0.0370969228	general theory of
0.0370949160	both spatial
0.0370908564	a novel temporal
0.0370890929	several types
0.0370856114	allow to
0.0370830739	not sensitive
0.0370825350	consumption by
0.0370672432	approaches do
0.0370643230	both simulated data and
0.0370596856	entire time
0.0370596430	the empirical distribution of
0.0370569027	the learning speed
0.0370556440	but do not
0.0370524033	for many real world
0.0370502632	one key
0.0370443375	new framework
0.0370416359	the intention
0.0370408437	the rc
0.0370397637	the label information
0.0370382289	new technique called
0.0370335438	accordingly to
0.0370286485	in models with
0.0370281530	a large dataset of
0.0370229902	described in terms of
0.0370206446	network trained to
0.0370142978	whole model
0.0370133083	policy evaluation in
0.0370111544	the two distributions
0.0370111391	via maximum
0.0370066644	using simulated and real data
0.0370048102	the specific problem
0.0370028020	a modification of
0.0370028020	in relation to
0.0370026253	between input and output
0.0370020901	a set of local
0.0369955840	the variational approximation
0.0369881832	novel multi
0.0369879407	a concern
0.0369798899	the potential to improve
0.0369671063	the necessary and
0.0369671063	well as in
0.0369630933	probabilistic framework for
0.0369627346	a new spectral
0.0369605548	the economy
0.0369565951	based method to
0.0369500284	the training and testing
0.0369443559	given data set
0.0369431457	a widely used method for
0.0369356774	a variable number of
0.0369336884	a couple of
0.0369304944	no dependence on
0.0369175797	a growing need
0.0369149765	performance due to
0.0369094363	the problem of sequential
0.0369071821	the hyper parameters of
0.0369015674	not possess
0.0368966186	different sets
0.0368945074	graphical model with
0.0368931876	strategy allows
0.0368905901	a value of
0.0368903475	optimal policy with
0.0368867864	the use of deep neural networks
0.0368827808	proposed approach with
0.0368827399	often based on
0.0368822356	well across
0.0368816939	to train on
0.0368813743	the statistical significance of
0.0368808836	the bike
0.0368710267	variety of different
0.0368698046	the critical points
0.0368695440	proof of concept for
0.0368662561	model consisting of
0.0368620504	then applies
0.0368606554	both dense
0.0368597537	the framework of learning
0.0368561589	more general class
0.0368531538	problem of learning with
0.0368526277	the saddle
0.0368475543	the state variables
0.0368450898	both simulated data
0.0368433592	allows researchers to
0.0368380619	the other agents
0.0368344689	such as machine translation
0.0368332574	to perturb
0.0368301581	classification performance with
0.0368285603	the existing graph
0.0368241730	in order to model
0.0368182418	the ultimate goal of
0.0368171579	an automl
0.0368167583	a scientific
0.0368150006	the structural information
0.0368015089	the practical usefulness
0.0367959466	as compared to
0.0367955287	a classification method
0.0367934626	the stationary distribution of
0.0367933574	the computational efficiency
0.0367926387	efficient framework for
0.0367898263	use of such
0.0367887340	used in training
0.0367788247	to handle missing
0.0367782921	different hardware
0.0367777100	a novel deep neural
0.0367752986	robust approach to
0.0367748231	the crux of
0.0367687659	\ hat \
0.0367631058	by switching
0.0367593234	a hierarchical structure
0.0367519773	new regularizer
0.0367477500	also consistent
0.0367471548	these two algorithms
0.0367375094	in several domains
0.0367332012	trained on only
0.0367321373	the generalization capacity
0.0367308208	a novel bayesian
0.0367240056	by attempting to
0.0367230401	to sample from
0.0367201174	a novel semi
0.0367141962	dataset and then
0.0367140780	molecules from
0.0367122368	a number of important
0.0367056176	also outperforms
0.0367041575	non linearity of
0.0367003114	existing methods in terms of
0.0366969621	an efficient and scalable
0.0366928984	the context of stochastic
0.0366849739	able to use
0.0366802605	method not only
0.0366800261	learning algorithms under
0.0366790186	need to develop
0.0366776571	the information about
0.0366708429	the proposed approach for
0.0366604861	such as medical
0.0366572464	this regularizer
0.0366514260	near optimal in
0.0366494092	the node features
0.0366480582	the overall accuracy
0.0366449884	the art algorithms in
0.0366365032	a body
0.0366316450	an improved algorithm
0.0366274643	networks generalize well
0.0366228897	the information contained
0.0366221026	on artificial data
0.0366139454	the previous approaches
0.0366106634	path from
0.0366078921	advantageous to
0.0366067534	a bias
0.0365996199	powerful new
0.0365933797	a new distributed
0.0365918144	function associated with
0.0365908297	the kernel density
0.0365857017	second class
0.0365846789	a machine learning approach for
0.0365800812	also tested
0.0365795673	a sparse signal
0.0365774798	evaluation of different
0.0365763768	novel feature
0.0365755292	network architecture for
0.0365745814	family of models
0.0365686117	by encoding
0.0365621313	selection method for
0.0365603726	best linear
0.0365543942	additive models with
0.0365536621	above results
0.0365469569	but powerful
0.0365468116	model suitable for
0.0365439337	some empirical
0.0365416223	the incorporation of
0.0365389517	the sgd algorithm
0.0365379321	a very low
0.0365370701	an accurate estimate
0.0365316161	features associated with
0.0365282133	odds with
0.0365265209	interpretable than
0.0365230944	a new robust
0.0365215508	the performance of such
0.0365202000	over time to
0.0365192767	the proposed method by
0.0365180424	sparsity pattern of
0.0365176910	four types of
0.0365131550	to sub
0.0365116658	the statistical performance
0.0365084170	full use of
0.0365010333	the functional form
0.0365005919	a regularization parameter
0.0364954715	the network by
0.0364912858	not work well
0.0364843047	the effective dimension
0.0364842749	at least as well
0.0364817895	between genes
0.0364779028	prohibitive in
0.0364763648	the iterative nature
0.0364761711	a follow up
0.0364753498	a partition
0.0364703207	often used in
0.0364699587	not yield
0.0364676335	the composition of
0.0364607168	the art algorithms on
0.0364600121	local structure of
0.0364473115	approach not only
0.0364470722	prediction models for
0.0364443023	show results on
0.0364388302	the feature representation
0.0364343196	the estimation accuracy
0.0364339030	both space
0.0364322152	such as web
0.0364297358	to exist
0.0364268583	limited due
0.0364214569	case study in
0.0364197492	a particular case
0.0364171876	in contrast to prior
0.0364168304	as described
0.0364131450	both space and time
0.0364115567	process regression with
0.0364081014	method does not
0.0364074115	network training with
0.0364063472	the loss functions
0.0364029705	these methods on
0.0363954876	to find good
0.0363897336	optimization methods such as
0.0363744610	well as for
0.0363732617	based algorithm to
0.0363711814	for general convex
0.0363706014	bring to
0.0363688240	the expected value of
0.0363609194	the deep network
0.0363569393	given access to
0.0363551519	also hold
0.0363548470	with very few
0.0363525850	different methods
0.0363493112	complexity in terms of
0.0363471266	\ leq \
0.0363450464	the active set
0.0363429382	descent algorithm for
0.0363411660	experimental results on synthetic and
0.0363350320	some number
0.0363327023	the other one
0.0363324743	source domain with
0.0363317040	model to make
0.0363308778	method used for
0.0363293505	in signal processing and machine
0.0363252872	interest as
0.0363250907	some state
0.0363248299	the jaccard
0.0362946646	the success rate
0.0362851744	to distinguish between
0.0362805132	bound under
0.0362762639	a generalized eigenvalue
0.0362758750	use of multiple
0.0362728247	principled way to
0.0362722988	of great value
0.0362640462	a number of existing
0.0362631399	not appear
0.0362605719	an effective algorithm
0.0362580415	causal models with
0.0362566462	used in clinical
0.0362560171	still able
0.0362558258	parameter tuning for
0.0362535780	a value function
0.0362514580	the overall training
0.0362496199	difficult than
0.0362492062	large family of
0.0362468213	the other methods
0.0362461076	a novel objective
0.0362461076	a novel dynamic
0.0362387134	to safety
0.0362329104	prior work in
0.0362180480	bayesian framework to
0.0362159659	novel attention
0.0362116663	the asymptotic convergence
0.0362066961	most standard
0.0362066961	no accuracy
0.0362044527	the vicinity of
0.0362014980	the bandit algorithm
0.0361997165	the two sets
0.0361990956	models used in
0.0361989919	institute of
0.0361989919	workhorse of
0.0361987573	the latent representations
0.0361956406	the image space
0.0361828999	to cluster data
0.0361804708	the binomial
0.0361780545	only need to
0.0361725820	the uncertainty in
0.0361683205	the learning procedure
0.0361658662	new unseen
0.0361614863	the posterior probability of
0.0361554516	an acquisition
0.0361515752	a broad spectrum of
0.0361511718	in different fields
0.0361457856	novel architecture
0.0361441448	ratio of two
0.0361411459	even in simple
0.0361410652	the presence or absence of
0.0361403807	or out of
0.0361379472	an extensive set
0.0361365294	the generator and discriminator
0.0361343002	a matter of
0.0361340935	a novel architecture
0.0361322356	also take
0.0361288103	the last two
0.0361244531	probabilistic modeling of
0.0361238903	the ill
0.0361227602	the intractability
0.0361180308	3 n
0.0361170750	models with non
0.0361170145	networks in terms of
0.0361119819	in many of
0.0361095052	the excellent performance
0.0360942166	from fmri
0.0360908074	propose two different
0.0360907309	statistical significance of
0.0360825713	to other existing
0.0360820879	the isolation
0.0360815997	training dynamics of
0.0360773954	the underlying structure of
0.0360702711	the estimation problem
0.0360700199	and much more
0.0360699160	only focus
0.0360648546	on two publicly
0.0360610893	on multiple real
0.0360526950	the degree to
0.0360428101	a proof
0.0360408864	both small
0.0360380130	the generalization performance
0.0360363117	a data stream
0.0360341092	a single set
0.0360276199	knowledge through
0.0360228923	$ \ \
0.0360190678	first phase
0.0360168491	the literature of
0.0360153907	to handle large
0.0360140163	a reject
0.0360117419	the graph to
0.0360112513	the simulation results
0.0360095942	the bandit setting
0.0360075722	the best known result
0.0359970256	methods aim to
0.0359956014	infeasible to
0.0359956014	transferable to
0.0359920924	an increase of
0.0359907986	the time to
0.0359873257	to use more
0.0359687946	as well as on real
0.0359671063	the graph in
0.0359614518	the robustness of deep
0.0359606004	known techniques
0.0359599719	two desirable
0.0359560270	same way
0.0359557044	important problem with
0.0359547529	increased in
0.0359546894	to produce high
0.0359532132	causal effect of
0.0359470302	a bag of
0.0359442866	representation via
0.0359411033	emerged to
0.0359400233	in order to efficiently
0.0359386546	the problem of robust
0.0359368770	$ norm for
0.0359317167	an estimation
0.0359281315	the optimal regularization
0.0359261391	inference across
0.0359204105	a stack
0.0359200528	an ablation
0.0359162391	the exploding
0.0359143728	bound in terms of
0.0359107288	the relative performance of
0.0359098833	those obtained by
0.0359076210	the main objective of
0.0359075811	scoring models
0.0359035206	sophisticated models
0.0359031340	classifiers via
0.0358974705	the same framework
0.0358912940	any information about
0.0358882851	thorough analysis of
0.0358832279	algorithm capable of
0.0358792311	retrieval from
0.0358779248	little information
0.0358769692	and easy to use
0.0358723918	detection and classification of
0.0358697331	level performance on
0.0358635058	a product of
0.0358621581	a self
0.0358565770	learning framework with
0.0358549056	the key contribution
0.0358523376	a random subset
0.0358501746	the most natural
0.0358458401	2 t
0.0358434432	for image recognition
0.0358432514	framework on two
0.0358424363	on various synthetic
0.0358360990	this paper deals with
0.0358355803	the second algorithm
0.0358303786	the inability of
0.0358255626	a crucial component of
0.0358243215	2 \ epsilon ^
0.0358102484	a few of
0.0358062299	a novel metric
0.0357958978	robustness through
0.0357946108	used to help
0.0357925078	the stationary points
0.0357885162	an approximation of
0.0357885162	a survey of
0.0357867870	interest with
0.0357824892	models for text
0.0357718445	distributed training of
0.0357687659	\ star \
0.0357557460	not known to
0.0357542525	statistical models for
0.0357536169	synthetic as well as
0.0357487960	to come from
0.0357356774	a wide set of
0.0357337586	on real and synthetic
0.0357332458	temporal dynamics of
0.0357288209	the original full
0.0357261623	the use of deep learning
0.0357240056	the supremum of
0.0357177260	the kind
0.0357161001	for data clustering
0.0357145576	identification problem in
0.0357141550	experimental study of
0.0357133831	a powerful class of
0.0357104034	a rank one
0.0357078967	the recent success
0.0357073927	$ t \
0.0357070158	the minimization of
0.0357033623	expect to
0.0357029861	to many state of
0.0357013997	the equivalence of
0.0357005626	a powerful approach for
0.0356998358	various image classification
0.0356969395	from time series data
0.0356950681	the statistical error
0.0356899061	a much lower
0.0356856661	with varying degrees of
0.0356825054	mixture models with
0.0356820633	models on mobile
0.0356763470	from limited data
0.0356731526	between training and testing
0.0356596596	first provably
0.0356542735	of tuning parameters
0.0356537216	rates compared to
0.0356533283	this step
0.0356522664	the problem of modeling
0.0356382958	previous best
0.0356382352	a surge in
0.0356356066	runs of
0.0356351444	the latent feature
0.0356253045	the leave one
0.0356239234	the mean and
0.0356130606	or false
0.0356128159	not generalize
0.0356125597	to train machine
0.0356107507	the speed up
0.0356084921	a statistical analysis
0.0355957591	interest in machine learning
0.0355951232	a set of experiments
0.0355944892	the sequential nature
0.0355906252	to directly learn
0.0355829225	previous methods on
0.0355824316	often trained
0.0355823545	the recent development
0.0355821728	in two real world
0.0355802950	2 =
0.0355801551	more suitable for
0.0355759251	the effective dimension of
0.0355758192	rate up to
0.0355664350	proposes to
0.0355558540	to display
0.0355444686	in contrast with
0.0355393384	in machine learning and data mining
0.0355336812	methods in order to
0.0355336812	features in order to
0.0355285206	direct use
0.0355279407	for recognizing
0.0355255350	model aims to
0.0355240877	risk minimization with
0.0355191970	well in practice
0.0355178128	the expressiveness of
0.0355176006	a new unsupervised
0.0355124891	the discrete nature
0.0355088698	and real world data show
0.0354999557	the intersection of
0.0354990261	known for
0.0354989919	presence or
0.0354969648	no access to
0.0354951284	converges as
0.0354879407	a dominant
0.0354832353	to result in
0.0354796480	further developed
0.0354758843	paradigm by
0.0354673510	regression models for
0.0354671063	the approach for
0.0354659659	good feature
0.0354656506	the neural tangent
0.0354600718	a new perspective on
0.0354490956	the new models
0.0354466746	factor analysis for
0.0354443023	well as to
0.0354433792	a stochastic differential
0.0354358707	deep models for
0.0354312042	effectiveness and robustness of
0.0354282493	some form
0.0354220674	a given problem
0.0354191205	the multivariate gaussian
0.0354173094	performance with respect to
0.0354164166	to near
0.0354161560	further shown
0.0354113598	different models for
0.0354107288	the asymptotic performance of
0.0354085458	both global and local
0.0354050814	challenges associated
0.0353997747	the art baselines in
0.0353993410	models with latent
0.0353974782	the sharpness of
0.0353959814	not affected
0.0353956388	a transparent
0.0353925226	that most
0.0353920452	supervised classification of
0.0353917307	a finite time
0.0353893492	a progressive
0.0353877472	one popular
0.0353856378	a training algorithm
0.0353846430	allows to obtain
0.0353795442	space via
0.0353715529	this technology
0.0353652361	not affected by
0.0353637896	an increasing interest
0.0353498299	the straight
0.0353454453	optimal way
0.0353450464	a generative adversarial
0.0353429356	the impulse
0.0353419389	the last iterate of
0.0353417375	a consequence of
0.0353292931	the consideration
0.0353289891	three challenging
0.0353279766	both offline
0.0353271016	other estimators
0.0353250907	some machine
0.0353248299	the stick
0.0353175739	the standard random
0.0353173752	the model from
0.0353102083	proposed algorithm with
0.0353065661	high risk of
0.0352939337	most prior
0.0352904629	different subsets
0.0352883730	methods on various
0.0352883634	the breakdown
0.0352802127	any given time
0.0352764518	the development of machine
0.0352685982	based ones
0.0352661560	each conditional
0.0352630543	the greedy algorithm
0.0352601252	the fundamental problems
0.0352584005	the algorithm with
0.0352579869	performance improvement in
0.0352554683	approximation via
0.0352533702	gaussians with
0.0352510335	the art approaches to
0.0352503304	efficiently find
0.0352429929	new instance
0.0352404981	certain classes of
0.0352388145	used in most
0.0352382258	the primal and dual
0.0352224682	convergence guarantees of
0.0352200735	the relative performance
0.0352112699	bias and variance of
0.0352033093	models such as neural
0.0351972788	the conventional methods
0.0351955153	the presence of label
0.0351905616	resnet with
0.0351903513	a basis
0.0351875176	p \ in
0.0351761837	in many modern
0.0351733767	interest in learning
0.0351659998	the mean and variance
0.0351591941	a novel deep learning
0.0351575470	use of different
0.0351452674	two orders
0.0351399130	the integrity
0.0351371366	and thus more
0.0351322356	not allow
0.0351301010	at least as well as
0.0351197540	generalize over
0.0351197540	patients at
0.0351186117	this relation
0.0351167916	suggested to
0.0351094409	the random variable
0.0351062395	tuned with
0.0351049519	new strategy
0.0351029794	the particular case
0.0351028706	the theoretical understanding
0.0351021480	such as image
0.0350987568	work represents
0.0350966416	posterior distribution for
0.0350943616	the neighborhood of
0.0350920541	a popular model for
0.0350878694	a family
0.0350823301	the best linear
0.0350805984	optimization algorithm with
0.0350803786	one way to
0.0350794505	verification for
0.0350771676	in order to allow
0.0350763768	any real
0.0350673890	the weight space
0.0350652197	a novel estimator
0.0350518168	the proposed method over
0.0350485871	results for various
0.0350437993	to detect changes
0.0350398548	robust algorithm for
0.0350337594	learning model on
0.0350334321	the network in
0.0350317245	technique into
0.0350290938	reward function for
0.0350248506	near state of
0.0350247863	not only on
0.0350162013	adaptive sampling for
0.0350133387	a class of stochastic
0.0350127297	the amount of training
0.0350125553	efficient learning in
0.0350111664	not contain
0.0350099568	many problems in machine
0.0350064207	the vanishing gradient
0.0350018189	seeking to
0.0349942653	main challenge in
0.0349934626	the key feature of
0.0349929120	this approach outperforms
0.0349924622	and empirically demonstrate
0.0349867419	well as state of
0.0349837348	flexible way to
0.0349832353	of learning from
0.0349770594	from as few as
0.0349770351	classifier over
0.0349763371	no need to
0.0349762462	no assumption on
0.0349751592	a natural framework
0.0349734201	to rank
0.0349680531	methods used in
0.0349631592	the inner product of
0.0349623799	crafted to
0.0349606004	not assume
0.0349600973	efficient algorithms with
0.0349580163	the spectral method
0.0349528954	not restricted to
0.0349436858	the random feature
0.0349265855	learning for non
0.0349242895	posterior distribution on
0.0349231526	a novel algorithm called
0.0349205854	but not limited to
0.0349169313	on several image
0.0349144890	the 3d structure
0.0349143315	the reward signal
0.0349107288	the special structure of
0.0349098833	in turn allows
0.0348993246	used to achieve
0.0348962049	the diagnosis of
0.0348959354	and then uses
0.0348937059	most complex
0.0348903972	series using
0.0348891718	several cases
0.0348863618	the vulnerability of deep
0.0348860059	intelligence models
0.0348828945	the algorithm of
0.0348821163	the algorithm in
0.0348816939	the problem using
0.0348790715	the convergence analysis
0.0348716697	learning problem for
0.0348652509	rate in terms of
0.0348609194	the error bounds
0.0348581954	rank structure of
0.0348549057	between accuracy and
0.0348539937	the temporal dynamics
0.0348520621	networks trained by
0.0348491385	and in general
0.0348483706	a range of challenging
0.0348419150	the problem of training
0.0348312717	several strong
0.0348264072	gaussian distribution with
0.0348216746	challenging task for
0.0348216014	method of choice for
0.0348084264	a new technique
0.0348074719	the more recent
0.0348069706	the context of machine learning
0.0347990939	the art method for
0.0347916042	used to demonstrate
0.0347887640	especially useful for
0.0347880480	the previous methods
0.0347836391	the image quality
0.0347777100	for many machine learning
0.0347770628	not only provide
0.0347722143	running time for
0.0347689031	such as support vector
0.0347600258	both qualitative and
0.0347577776	in other domains
0.0347475281	an ensemble of deep
0.0347465200	efficient optimization of
0.0347459502	a different approach
0.0347422715	the algorithm for
0.0347416421	the realm
0.0347412858	often referred to
0.0347411787	the internal structure
0.0347386906	different versions of
0.0347377326	a zero
0.0347339099	including computer
0.0347294438	but also provide
0.0347268583	attention due
0.0347250197	but also for
0.0347216325	measured with
0.0347193144	a nonconvex optimization
0.0347164170	the art models in
0.0347161922	for models with
0.0347133310	the fw
0.0347117729	several commonly used
0.0347075508	from thousands
0.0347070158	the recovery of
0.0347070158	the calculation of
0.0347013997	the popularity of
0.0347007667	as well as to
0.0347005626	a central problem in
0.0346935776	walk on
0.0346895326	in many machine
0.0346888803	space and then
0.0346853927	certain class of
0.0346846733	a warm
0.0346843196	the classification results
0.0346826969	no need for
0.0346775902	the viewpoint of
0.0346690351	full distribution
0.0346687621	the trace of
0.0346654137	the clustering structure
0.0346643763	performance of various
0.0346643636	certain aspects of
0.0346607434	better able to
0.0346494632	performance of several
0.0346491543	the randomness of
0.0346470300	the hessian at
0.0346397556	robust to noise and
0.0346397067	a novel class of
0.0346368199	methods on three
0.0346335912	a unified model
0.0346326326	best predictive
0.0346304406	a principled approach to
0.0346293492	a satisfactory
0.0346188946	the plug in
0.0346181661	a key challenge in
0.0346160929	the span of
0.0346160929	an improvement in
0.0346160529	sparse set of
0.0346128945	the tendency of
0.0346116238	proposed framework on
0.0346060736	in \ mathbb r ^ d
0.0345991326	usually rely on
0.0345960765	to provide high
0.0345933885	such as link prediction
0.0345870000	dataset of over
0.0345796480	various statistical
0.0345750172	of work on
0.0345677831	new approach based
0.0345668039	networks with respect to
0.0345638728	the dynamic time warping
0.0345617708	the training and test
0.0345612513	the historical data
0.0345607540	than half of
0.0345538759	mean field theory of
0.0345439337	several theoretical
0.0345439337	some previous
0.0345400109	in various scenarios
0.0345389517	the graphical structure
0.0345368791	work well for
0.0345339569	a key feature
0.0345338959	the theoretical properties of
0.0345328188	known to perform
0.0345323745	main idea of
0.0345295826	models need to
0.0345267592	the incidence
0.0345239767	not enough to
0.0345236325	more challenging than
0.0345188185	output layer of
0.0345028020	an improvement of
0.0345018415	communication cost of
0.0344942767	the proposed framework to
0.0344805027	data from three
0.0344745262	domain via
0.0344657114	learning system to
0.0344579823	increasingly important in
0.0344553853	learning dynamics of
0.0344551629	due to high
0.0344539888	of interest from
0.0344483222	performance improvements in
0.0344479799	a data set of
0.0344459556	better than state of
0.0344455282	but also more
0.0344435776	check for
0.0344421127	the large size
0.0344386194	the adequacy
0.0344376480	an abundance
0.0344301871	a very common
0.0344243006	better estimates of
0.0344238416	model does not
0.0344235016	with very high
0.0344235016	a very effective
0.0344183593	both quantitatively
0.0344136583	learning method to
0.0344036554	the whole data
0.0344018726	the specific case
0.0344018726	the limited number
0.0343938371	new variational
0.0343901509	on several examples
0.0343860283	the features in
0.0343830155	the past few
0.0343794617	new scheme
0.0343767895	the key features
0.0343710356	the dependence structure of
0.0343649305	a novel mechanism
0.0343590780	with millions
0.0343586578	both time and
0.0343547578	running time of
0.0343494275	the given task
0.0343358335	a model trained on
0.0343197331	driven approach for
0.0343155728	and then used
0.0343117559	a causal model
0.0343117559	a regression task
0.0343095383	a bayesian approach to
0.0343093857	a huge amount
0.0343071392	propose to make
0.0343009668	the city of
0.0343004396	the aim to
0.0343004396	the network of
0.0342970490	a much higher
0.0342884754	or better performance
0.0342679414	accelerators for
0.0342671876	a more general class
0.0342661560	not capture
0.0342655949	convergence compared to
0.0342626171	by relying
0.0342615905	$ m = \
0.0342602458	as well as two
0.0342477733	the conditional distributions
0.0342466446	training time by
0.0342454262	the dependence structure
0.0342453773	most common approach
0.0342442505	models for graph
0.0342413970	in order to do so
0.0342402725	optimal policy for
0.0342389916	well as other
0.0342383275	little data
0.0342338562	both artificial
0.0342281326	the proposed method with
0.0342271089	very useful in
0.0342168207	spectral gap of
0.0342150272	a clear and
0.0342110336	by retraining
0.0342106004	different type
0.0342106004	several application
0.0342027520	angle of
0.0341919437	not suitable for
0.0341914965	the chi
0.0341882833	the attention weights
0.0341867234	without re
0.0341802605	commonly used to
0.0341725820	the sequence of
0.0341725820	the range of
0.0341706900	applied in various
0.0341688192	the influence function
0.0341686001	certain type of
0.0341630498	optimal rates of
0.0341596596	often hard
0.0341581644	learning paradigm for
0.0341572137	an important part
0.0341559497	some small
0.0341558018	a better understanding
0.0341521350	interior of
0.0341394463	user study with
0.0341377614	the gradient noise
0.0341310859	in two steps
0.0341222320	a weighted combination of
0.0341172219	the use of such
0.0341105130	recovered with
0.0341096535	a theoretical framework for
0.0341083012	the overall performance
0.0341053186	a deep learning approach for
0.0340974784	accuracy and robustness of
0.0340964752	the current best
0.0340952179	between training and test
0.0340947223	give sufficient
0.0340941054	able to model
0.0340932874	transparency in
0.0340917124	the conducted experiments
0.0340901423	the manifold structure
0.0340760387	the second approach
0.0340666447	on two benchmark
0.0340604698	the first finite
0.0340596430	the marginal distribution of
0.0340526950	the cardinality of
0.0340394511	readily available in
0.0340322137	a byproduct of
0.0340286446	the practical performance
0.0340277003	not guarantee
0.0340238795	the remaining data
0.0340116512	the performance of two
0.0340085747	into account both
0.0340068794	not included in
0.0340044756	a mismatch between
0.0340028020	a new variant of
0.0339948022	the sparse representation
0.0339887117	deep architectures for
0.0339832353	this problem for
0.0339784296	terms of accuracy and
0.0339761251	also effectively
0.0339758762	not take into
0.0339671063	the dataset to
0.0339606004	many diverse
0.0339592894	the prediction results
0.0339474836	the private data
0.0339383310	the kriging
0.0339378597	by use of
0.0339281616	on several real
0.0339272288	the promising performance of
0.0339248006	framework allows for
0.0339222811	robustness of models
0.0339192535	to correspond
0.0339094369	guarantee with
0.0339093918	the design process
0.0339005919	a technique called
0.0338982073	to take into
0.0338951905	data comes
0.0338888892	but much
0.0338821163	the model for
0.0338776288	to efficiently find
0.0338748337	learning model to
0.0338736502	leading to more
0.0338731881	general model for
0.0338639232	deep learning models on
0.0338629479	an approach based on
0.0338610987	sum to
0.0338398065	a more complete
0.0338360990	an effective tool for
0.0338317040	model by using
0.0338267016	first time in
0.0338261166	the bias and variance
0.0338182522	models with high
0.0338158923	new way to
0.0338102484	to use for
0.0338087118	training process of
0.0338009668	a composition of
0.0338009668	the progress of
0.0337998806	dynamical system with
0.0337876765	an imitation
0.0337819279	proposal on
0.0337790633	system based on
0.0337715551	the guidance of
0.0337706862	time limit
0.0337689299	learning technique for
0.0337478859	computational power of
0.0337463856	$ number of
0.0337346678	in many learning
0.0337308115	with millions of
0.0337277054	not able to
0.0337227449	a framework for learning
0.0337198870	the response variables
0.0337179503	the new algorithms
0.0337144465	to work on
0.0337095135	identity of
0.0337004261	based optimization of
0.0336947432	amount of available
0.0336923122	parameters per
0.0336916191	functions used in
0.0336910197	statistical model of
0.0336852198	the high dimensionality of
0.0336728175	most discriminative
0.0336662584	work aims to
0.0336647626	especially in high dimensional
0.0336616027	the training and test data
0.0336597331	the good performance of
0.0336584886	the factor graph
0.0336565037	a class of neural
0.0336427918	several image
0.0336388731	the problem with
0.0336368199	impact of such
0.0336322429	probabilistic models with
0.0336303786	the expressivity of
0.0336296083	the statistical properties
0.0336255820	a gaussian kernel
0.0336204426	for continuous data
0.0336187980	the continuous time
0.0336165857	particular application
0.0336093381	a variety of machine learning
0.0336083012	a good model
0.0336039924	to converge to
0.0336002556	a graph into
0.0335995509	a random search
0.0335899739	to transfer knowledge from
0.0335871566	both on synthetic
0.0335834827	the practical use of
0.0335830739	then focus
0.0335830607	not hold for
0.0335816725	used to control
0.0335809804	based training of
0.0335806026	linear least
0.0335800618	the underlying optimization
0.0335750310	a more flexible
0.0335750172	to solve for
0.0335715551	the manner in
0.0335699160	both quantitative
0.0335688240	the propagation of
0.0335591344	to attack
0.0335571721	novel paradigm
0.0335539970	more accurate in
0.0335495337	a kernel matrix
0.0335480934	the sensitive information
0.0335410695	a standard approach to
0.0335372188	the minimizer of
0.0335349086	a deep neural network to
0.0335322137	the versatility of
0.0335247413	the research field
0.0335159321	a common set
0.0335143029	the arrival of
0.0335135322	a generic method
0.0335090606	distributions across
0.0335071086	driven way
0.0335064447	practice due to
0.0335053912	the uniform convergence
0.0335028020	a basis for
0.0335016378	a generalized version of
0.0334990648	the internal structure of
0.0334977074	a projected gradient
0.0334947292	models as special
0.0334942260	the training data in
0.0334903222	the region of interest
0.0334859904	and variance of
0.0334829005	the implications for
0.0334827694	only depend
0.0334678759	a fast algorithm
0.0334676335	the adoption of
0.0334595690	the information content of
0.0334582353	or more of
0.0334573270	more reliable and
0.0334550812	also employed
0.0334539888	a necessary and
0.0334536467	to appear in
0.0334446250	\ theta \ in
0.0334383678	also serve
0.0334311212	the query complexity
0.0334309856	a natural approach
0.0334305359	technique does not
0.0334282493	but hard
0.0334282493	both interpretable
0.0334246708	a novel meta
0.0334188623	in many important
0.0334160929	the appearance of
0.0334155267	the posterior probability
0.0334133843	counts of
0.0334127704	also allows for
0.0334071398	a new learning algorithm
0.0334038638	of users and items
0.0334019790	rely on two
0.0333982453	the target of
0.0333947308	10 dataset
0.0333946095	known to provide
0.0333852997	the task of image
0.0333828945	the function of
0.0333768454	work builds on
0.0333758208	demonstrate via
0.0333748337	proposed model on
0.0333712081	the relative importance of
0.0333645985	new insight into
0.0333607428	a given time
0.0333606004	various classes
0.0333558266	uncertainty due
0.0333526005	the small sample
0.0333509863	the predictive model
0.0333453573	the reconstruction error of
0.0333414357	the implicit bias of
0.0333390234	to determine if
0.0333380619	a time complexity
0.0333362542	regularization term to
0.0333324518	an important task in
0.0333315010	a novel notion
0.0333303786	a period of
0.0333291145	the upper and lower
0.0333208158	the state transition
0.0333169115	the spectral properties
0.0333080526	to two orders of magnitude
0.0333026331	in many real
0.0333004396	to learn to
0.0332961284	not represent
0.0332961284	not exploit
0.0332938596	of models trained
0.0332904381	the objective functions
0.0332865958	the efficiency and effectiveness
0.0332821549	by working
0.0332764518	a range of benchmark
0.0332660966	comparably or
0.0332647067	a technique for
0.0332569316	research interest in
0.0332564564	the latent space of
0.0332558586	very well on
0.0332549600	stochastic optimization with
0.0332502950	all latent
0.0332491793	seek for
0.0332464176	in two aspects
0.0332426196	not produce
0.0332416925	appear in many
0.0332399325	often referred to as
0.0332369873	an efficient stochastic
0.0332357231	the connection to
0.0332272288	the joint probability of
0.0332245934	features as well as
0.0332245509	the feature values
0.0332237962	different combinations
0.0332106004	more limited
0.0332076619	the model over
0.0332052547	new notion of
0.0332007120	nonstationary time
0.0332002870	matrix estimation in
0.0331908867	the fraction of
0.0331844133	different times
0.0331830784	this not only
0.0331775798	any type
0.0331696181	\ n
0.0331679978	accuracy with respect to
0.0331666704	of three steps
0.0331632522	this paper aims to
0.0331608609	instead of relying on
0.0331554516	specified model
0.0331478739	some aspects of
0.0331425312	the robustness of neural
0.0331404644	much better performance
0.0331404404	any pair
0.0331365484	those generated
0.0331322356	yet more
0.0331246643	a comparative study of
0.0331229348	a connection between
0.0331170145	techniques in terms of
0.0331168327	used to study
0.0331154239	the prediction task
0.0331109194	the contextual information
0.0331109194	the predictive uncertainty
0.0331090063	the training of deep neural
0.0331034123	time required
0.0330996800	a superior performance
0.0330964937	median of
0.0330920541	the model learns to
0.0330823671	more information about
0.0330800812	10 datasets
0.0330768168	the proposed approach in
0.0330759529	any sequence
0.0330518168	the proposed algorithm to
0.0330464727	the increasing availability of
0.0330353277	classification task on
0.0330336973	a vector representation
0.0330180037	to discover new
0.0330173960	the computation cost
0.0330166960	a new neural network
0.0330163568	and sparse components
0.0330034575	not naturally
0.0329981739	both convex and
0.0329938039	many types
0.0329918491	a variety of models
0.0329825756	any number of
0.0329778169	algorithm needs to
0.0329718088	a new strategy
0.0329620741	a novel solution
0.0329551785	but also on
0.0329494934	a feed
0.0329488441	a complete characterization of
0.0329420944	use of unlabeled data
0.0329407820	the integration of
0.0329283911	inference and learning in
0.0329276950	the mnist and
0.0329266780	also lead
0.0329256308	the number of training
0.0329220854	different from most
0.0329071517	assumption does not
0.0329063326	in terms of convergence
0.0329058240	on several data sets
0.0329004492	predictive distribution of
0.0328963168	the structure learning
0.0328918066	more general class of
0.0328917990	the art models for
0.0328904091	with probability at
0.0328880523	the network at
0.0328852959	the prediction accuracy of
0.0328634298	the necessary and sufficient
0.0328540425	the stochastic block
0.0328506641	the information of
0.0328491385	to many problems
0.0328416952	methods on two
0.0328390822	two versions of
0.0328374701	in order to help
0.0328336358	novel domain
0.0328305217	and more important
0.0328288062	small perturbation of
0.0328250907	those based
0.0328224734	the open problem
0.0328192808	for such systems
0.0328009668	the same type of
0.0328009668	the sign of
0.0327958978	risk under
0.0327944686	an instance of
0.0327790623	performs better in
0.0327774265	the neural network to
0.0327596902	design space of
0.0327527975	not only for
0.0327488238	a tendency to
0.0327471761	common practice to
0.0327427696	the context of linear
0.0327426196	not increase
0.0327420897	least one of
0.0327390223	a guideline for
0.0327299743	a detailed analysis of
0.0327150272	a formulation of
0.0327098702	learning method with
0.0326993331	the two tasks
0.0326990341	of entities and relations
0.0326927797	data available in
0.0326836877	variational approximation of
0.0326807671	efficiently than
0.0326802136	no information about
0.0326748861	given context
0.0326745895	to make more
0.0326643636	a unified way
0.0326481918	joint optimization of
0.0326467642	different notions of
0.0326464470	to work well in
0.0326369162	the data available
0.0326280729	these two types
0.0326266967	the ability to detect
0.0326240097	with limited training
0.0326214769	a search space
0.0326131255	used for unsupervised
0.0326088626	using data from
0.0326062059	allows fast
0.0326052120	the cornerstone of
0.0326041991	optimal solution for
0.0326037172	terms of performance and
0.0326009668	the physics of
0.0325986235	models for graphs
0.0325982358	the question of whether
0.0325980739	two variants of
0.0325916409	shift by
0.0325873832	most important features
0.0325781570	no polynomial
0.0325633003	but not for
0.0325474490	$ score of
0.0325334321	the model of
0.0325225820	novel way
0.0325169262	the context of reinforcement
0.0325158201	the convergence behavior
0.0325126190	a popular model
0.0325071172	also able to
0.0324992389	a more realistic
0.0324982371	the presence of multiple
0.0324917938	well as many
0.0324868431	a lower bound of
0.0324825756	in order to find
0.0324732230	the best existing
0.0324690140	algorithm on two
0.0324671063	the literature in
0.0324643010	the good performance
0.0324592460	optimization algorithms such as
0.0324475577	proposed in order to
0.0324438441	the associated optimization
0.0324438329	on several popular
0.0324420794	both regression and classification
0.0324391919	a far more
0.0324370280	iterate of
0.0324297362	the merit of
0.0324267586	the discrete time
0.0324113408	two versions
0.0324098360	over subsets of
0.0324092863	not exhibit
0.0324070348	$ \ log ^
0.0323957827	a random walk on
0.0323904926	as to maximize
0.0323888731	the network on
0.0323871375	a new architecture
0.0323852959	the asymptotic behavior of
0.0323844590	the application of deep
0.0323792257	construct two
0.0323732453	the performance with
0.0323694331	the learning performance of
0.0323663019	the l0
0.0323651486	used for clustering
0.0323640552	transfer well
0.0323610616	to look for
0.0323590226	a part of
0.0323559667	and thus do not
0.0323498360	a novel active learning
0.0323414755	any deep neural
0.0323374043	the algorithm as
0.0323360094	recent work of
0.0323348054	\ sqrt t \
0.0323335042	the conditions for
0.0323335042	the future of
0.0323310584	the whole model
0.0323269106	to make better
0.0323212867	the example of
0.0323160472	modeled in
0.0323110094	prediction models in
0.0323105234	well with
0.0323095383	the main result of
0.0323090213	square error of
0.0323074095	the global structure of
0.0323064701	also do
0.0323009668	a new measure of
0.0323004396	the learning to
0.0322983087	models suffer
0.0322853268	a standard method
0.0322848378	a shift in
0.0322843765	all parts of
0.0322838886	the cause of
0.0322807582	a feature representation
0.0322665685	new form of
0.0322661560	several common
0.0322574719	to more general
0.0322534250	the design of deep
0.0322509681	to deal with high
0.0322502460	important task for
0.0322496396	mixing time of
0.0322471496	data from various
0.0322463615	and memory complexity
0.0322355850	in many natural
0.0322264734	several research
0.0322244275	the new formulation
0.0322238813	modified to
0.0322216241	accuracies as
0.0322202701	the credibility
0.0322172029	only depends on
0.0322135654	bulk of
0.0322109182	different stages of
0.0322106004	most research
0.0322106004	most challenging
0.0322097937	directly used to
0.0322066801	technique used in
0.0321981748	an optimal algorithm
0.0321929931	standard approach of
0.0321923745	all previously
0.0321919911	in contrast to prior work
0.0321908867	the average of
0.0321902629	the special structure
0.0321776570	performance on many
0.0321775929	rank approximation of
0.0321761303	a theoretical point
0.0321758398	a need to
0.0321708395	the user to specify
0.0321692151	but very
0.0321678464	most basic
0.0321526198	the above two
0.0321489514	a number of machine learning
0.0321443463	given samples from
0.0321418759	a novel way of
0.0321337730	a system to
0.0321332261	a method based
0.0321284698	on three large
0.0321260565	points via
0.0321222320	a large pool of
0.0321218692	a challenge due to
0.0321144058	over subsets
0.0321096535	a general approach to
0.0321084706	algorithm with respect to
0.0321083317	the nonconvex optimization
0.0321052576	the question whether
0.0321031631	a surge of interest
0.0320976294	\ omega \
0.0320942298	to achieve better performance
0.0320908630	necessary condition for
0.0320892486	yet very
0.0320868030	point of view of
0.0320834818	work aims at
0.0320833916	the theoretical properties
0.0320691536	developing models
0.0320596732	of features in
0.0320571172	especially for large
0.0320565259	the level set
0.0320477628	to other models
0.0320477558	the design of new
0.0320427612	as well as real
0.0320399251	the regularization effect
0.0320322137	the viability of
0.0320167032	general setting of
0.0320108889	used in many applications
0.0320106205	the finite time
0.0319966303	algorithm used in
0.0319931204	the most used
0.0319920044	the high cost
0.0319903422	improved through
0.0319865261	often encountered in
0.0319840419	the model by
0.0319830387	models for time series
0.0319823412	a class of methods
0.0319797385	improve performance by
0.0319766054	a number of recent
0.0319742674	generalization performance for
0.0319722101	various real
0.0319706848	the application of machine
0.0319683405	a popular algorithm
0.0319673510	data from one
0.0319670300	other variants of
0.0319659279	also serves as
0.0319613006	grow to
0.0319518097	the high computational
0.0319503361	on several well
0.0319497692	data point to
0.0319461848	new family
0.0319382851	becomes more and
0.0319320642	dimensional space with
0.0319307546	a variety of methods
0.0319281788	this ability
0.0319247092	in most existing
0.0319194376	both shallow
0.0319185820	\ theta \
0.0319174869	based learning of
0.0319167249	the generalization bounds
0.0319153174	to larger datasets
0.0319140647	either rely on
0.0319122292	a novel family of
0.0319118068	the proposed algorithm for
0.0319116193	the expression of
0.0319072464	as measured
0.0319072204	a convolutional network
0.0319041515	the approximate solution
0.0319025246	the model allows
0.0319021105	while requiring only
0.0318959593	still under
0.0318911186	the agent with
0.0318899860	detection system for
0.0318866693	further used to
0.0318852959	the generalization properties of
0.0318744350	a comprehensive overview of
0.0318700860	the functional form of
0.0318662611	used for many
0.0318466241	dags with
0.0318461899	the duration of
0.0318447109	any assumption on
0.0318424334	each other and
0.0318368721	more similar to
0.0318355386	instead of training
0.0318319028	often interested in
0.0318294860	the amount of time
0.0318280218	such as generative adversarial networks
0.0318273562	the susceptibility of
0.0318249576	provide very
0.0318244092	the semantic information
0.0318185223	remedy for
0.0318118525	the important problem
0.0318095383	the spatial distribution of
0.0318061624	typically used to
0.0318050911	of transfer learning in
0.0318009668	the fidelity of
0.0318009668	the boundary of
0.0318009620	art models in
0.0317972107	useful in many
0.0317854234	in order to develop
0.0317821048	the proposed model in
0.0317794574	the key components
0.0317715551	the same distribution as
0.0317681276	the learning curves
0.0317576184	the error between
0.0317527042	order to show
0.0317523445	a necessary and sufficient
0.0317505137	last two
0.0317490868	$ out of
0.0317413827	three types
0.0317403006	a variety of approaches
0.0317386605	the same way as
0.0317244275	a very high
0.0317242559	of different modalities
0.0317217748	the recommender system
0.0317214029	a promising way to
0.0317184197	an empirical study of
0.0317165234	performance on three
0.0317115441	three sets of
0.0317100467	one crucial
0.0317070158	the design and
0.0317070158	the search for
0.0317070158	the derivation of
0.0317070020	a mapping from
0.0317065787	a smooth and
0.0317065787	the description of
0.0317057671	features during
0.0317008401	known bound
0.0317005626	the challenging problem of
0.0316990956	a property of
0.0316974831	a different distribution
0.0316920621	the development of deep
0.0316891448	the universality of
0.0316760404	the mean function
0.0316713940	and more generally
0.0316620389	this approach for
0.0316606618	become ubiquitous in
0.0316527074	a popular framework
0.0316459593	either use
0.0316398034	only o
0.0316366163	on different tasks
0.0316362322	setting as well
0.0316265369	learning approaches for
0.0316211403	the spectral norm of
0.0316188291	to apply machine
0.0316181040	the convergence of stochastic
0.0316164711	world applications such as
0.0316129160	but not on
0.0316082874	of science and engineering
0.0315928936	the representation of
0.0315928936	the training time
0.0315869819	of at most
0.0315866811	a corpus of
0.0315809442	a novel use of
0.0315803514	the inference problem
0.0315797352	experiments with two
0.0315795337	with other approaches
0.0315788916	use of multi
0.0315709381	non convex optimization with
0.0315700145	many applications of machine
0.0315593857	while taking into
0.0315480934	the density function
0.0315417685	continuing to
0.0315408856	used in deep learning
0.0315372470	the computational power
0.0315320365	uniformly at
0.0315216410	a significant impact on
0.0315216120	the problem becomes
0.0315202830	synthetic and real data show
0.0315177467	each communication
0.0315171211	models such as variational
0.0315135322	a powerful method
0.0315131257	this approach by
0.0315131257	these results with
0.0315119873	to generate new
0.0315092022	the performance of deep learning
0.0315001709	the algorithm by
0.0314959127	a particular class of
0.0314931204	models with many
0.0314922292	a promising approach to
0.0314916400	wide range of applications in
0.0314876797	as possible with
0.0314871314	but not limited
0.0314839099	reliable than
0.0314836906	network models on
0.0314832353	on results from
0.0314790419	higher accuracy in
0.0314657217	no computational
0.0314607194	a distributed system
0.0314600759	the covariance matrix of
0.0314597057	inefficient to
0.0314562573	algorithm designed to
0.0314524635	not possible to
0.0314441197	one type of
0.0314435776	host of
0.0314391395	a key ingredient in
0.0314276950	the attributes of
0.0314161186	the application to
0.0314141984	and then apply
0.0314125319	using tools from
0.0314106970	a joint optimization
0.0314104907	the rate of convergence of
0.0314074653	$ approximation of
0.0314065138	main objective of
0.0314024869	outcome from
0.0314024540	to use deep learning
0.0313931370	of such approaches
0.0313866811	a cluster of
0.0313852997	the field of deep
0.0313813215	the action value
0.0313800759	the source of
0.0313792861	different regions of
0.0313785802	a key to
0.0313774520	especially deep
0.0313764734	often challenging
0.0313749834	use of deep
0.0313718340	becoming more and
0.0313689701	new way
0.0313578945	a classifier in
0.0313550814	performs much
0.0313547299	a rigorous analysis
0.0313542820	not necessary for
0.0313520088	data corresponding to
0.0313431379	used in many
0.0313385028	the human visual system
0.0313335042	the sensitivity to
0.0313298622	a combinatorial optimization
0.0313287055	this problem with
0.0313268969	measures between
0.0313226106	the global structure
0.0313126637	both seen
0.0313075113	task because
0.0313070288	used in real world
0.0312983087	an aspect
0.0312976733	at different stages of
0.0312919067	by way of
0.0312885162	a methodology for
0.0312837504	general way
0.0312819279	interpolation with
0.0312784306	different values of
0.0312603515	optimization method with
0.0312569276	the test time
0.0312552483	ability to use
0.0312551382	error does not
0.0312518736	different activation
0.0312471018	other forms
0.0312341946	the first regret
0.0312296314	series of experiments on
0.0312269092	particular type of
0.0312253874	possible to find
0.0312199407	amount of training
0.0312148535	the new methods
0.0312135654	assortment of
0.0312114677	the performance of various
0.0312108818	the causal structure of
0.0312049802	in various applications
0.0311975854	the specific task
0.0311947629	challenging task in
0.0311938240	the first and second
0.0311933675	an unbiased estimator of
0.0311920940	very difficult to
0.0311869719	the proposed algorithm in
0.0311843196	the learning dynamics
0.0311829632	the sufficient number of
0.0311745985	not captured by
0.0311745123	way to use
0.0311687012	novel generative model
0.0311645887	a much better
0.0311601147	the asymptotic distribution
0.0311563700	mean estimator
0.0311539374	some open
0.0311486060	different forms of
0.0311432758	as possible to
0.0311394433	a convergence analysis
0.0311360433	the effectiveness and efficiency
0.0311292670	use of deep neural
0.0311246877	model allows for
0.0311225190	to other state of
0.0311194136	most critical
0.0311178960	and real world datasets show
0.0310984682	and several other
0.0310871437	better understanding of
0.0310829377	the structural properties
0.0310807671	size without
0.0310755626	a promising alternative to
0.0310717946	than baselines
0.0310633077	a huge number of
0.0310615032	the leave
0.0310598198	global minimum of
0.0310564701	zero at
0.0310522732	links to
0.0310518168	the proposed approach with
0.0310473098	an experiment on
0.0310450714	problem due to
0.0310374076	use of deep learning
0.0310371150	the generalized linear
0.0310242070	faster at
0.0310224782	the goodness of
0.0310186757	\ log n \
0.0310126190	the model's performance
0.0310113194	in many state of
0.0310104918	the trained neural
0.0310040710	as possible in
0.0310028020	an implementation of
0.0310000172	both supervised and
0.0309993689	the way to
0.0309961527	to work in
0.0309955974	more efficient learning
0.0309952064	cost than
0.0309952064	convergence than
0.0309945027	used to speed
0.0309918491	with different types of
0.0309838246	above methods
0.0309800528	a wide class
0.0309776586	much interest in
0.0309757581	a cause
0.0309728659	way of learning
0.0309683592	allow users to
0.0309677571	the art approaches in
0.0309671063	of interactions with
0.0309671063	a user to
0.0309666161	to more accurately
0.0309617660	the expected information
0.0309588778	better in terms of
0.0309571067	the logarithm of
0.0309555595	the dynamic nature
0.0309508594	promise as
0.0309407820	in case of
0.0309327054	a specific class of
0.0309301989	a scalable algorithm
0.0309289374	several simulated
0.0309253471	then used as
0.0309212877	the backbone of
0.0309189711	the representation space
0.0309166359	a scalable framework
0.0309102136	variance than
0.0308959593	often possible
0.0308931370	of the \ textit
0.0308924589	in two real
0.0308918759	a neighborhood of
0.0308918759	the motivation of
0.0308788814	origin of
0.0308588361	the amount of training data
0.0308553163	$ \ alpha \
0.0308552120	to zero as
0.0308520621	iterative algorithm to
0.0308506641	a network of
0.0308488267	and hard to
0.0308425582	order to find
0.0308423059	attacker to
0.0308412209	to arrive
0.0308351984	the name of
0.0308341764	a goodness of
0.0308321132	dataset as well as
0.0308278579	a key aspect of
0.0308268969	likelihood under
0.0308218613	often used to
0.0308173559	a model for
0.0308165687	a new algorithm to
0.0308058277	scales only
0.0308049940	the wisdom of
0.0308043799	the performance of deep neural
0.0308030226	a single one
0.0308022421	process model with
0.0308009668	the acquisition of
0.0307991744	also well
0.0307979248	the capabilities of
0.0307975975	a multivariate time series
0.0307962465	of such attacks
0.0307910144	a widely used method
0.0307873974	neural network models for
0.0307868726	used in machine learning
0.0307858609	a popular way
0.0307827253	learning from positive and
0.0307819279	asymptotically as
0.0307798065	over other methods
0.0307648212	certain settings
0.0307622530	data by means of
0.0307610816	the efficiency and effectiveness of
0.0307596902	estimation error for
0.0307594869	both machine learning and
0.0307490849	than previous work
0.0307451401	a generative model to
0.0307445694	spread in
0.0307439703	dependent way
0.0307349943	on three tasks
0.0307264468	the family of
0.0307262730	all types of
0.0307200464	the decision process
0.0307182966	approach on various
0.0307172715	the problem by
0.0307159288	in three different
0.0307147974	with three different
0.0307139765	the conditional mean
0.0307123401	for solving large
0.0307122521	several layers of
0.0307064025	the uniqueness of
0.0307008594	corollary of
0.0306997120	novel type
0.0306990956	and sensitivity to
0.0306985946	market with
0.0306953331	the generalization properties
0.0306942870	this problem based on
0.0306938240	the second part of
0.0306915319	in machine learning to
0.0306891448	the abundance of
0.0306718269	intent of
0.0306700038	method known as
0.0306662836	this paper aims at
0.0306494517	a relaxation of
0.0306437646	a diverse set
0.0306431775	the promising results
0.0306382958	achieve much
0.0306308299	a promising tool for
0.0306286979	the light of
0.0306270968	the most popular approaches
0.0306240168	such as recurrent neural networks
0.0306231090	the machine learning models
0.0306136605	both binary and
0.0306077182	for doing so
0.0306066586	a fixed time
0.0306039309	significant attention in
0.0306008996	the overall model
0.0305954658	of different features
0.0305953847	by focusing on
0.0305947470	various levels
0.0305928936	the method of
0.0305905147	then used in
0.0305868030	rate of convergence in
0.0305866811	the effectiveness and efficiency of
0.0305866811	a database of
0.0305787506	a widely used technique for
0.0305758002	the effectiveness and robustness of
0.0305758002	a novel concept of
0.0305741969	different numbers of
0.0305683479	datasets used in
0.0305673752	and also to
0.0305640135	q learning to
0.0305566268	first efficient algorithm
0.0305501362	the best baseline
0.0305464896	contrastive learning of
0.0305412155	not computationally
0.0305340301	access to only
0.0305331530	classes of models
0.0305287171	not impose
0.0305235086	to very large datasets
0.0305225820	first part
0.0305203484	models such as generative
0.0305088731	not able
0.0305069276	and other state of
0.0305043042	usually much
0.0305001709	the model using
0.0304976159	a significant performance
0.0304946128	a deep residual
0.0304939703	powerful way
0.0304895178	the granularity of
0.0304871023	cone of
0.0304871023	diagram of
0.0304859397	the sum of squared
0.0304840419	the results for
0.0304800812	many commonly
0.0304791769	the optimization landscape of
0.0304767391	new aggregation
0.0304543431	with thousands
0.0304462098	the evaluation results
0.0304333000	models in machine learning
0.0304327054	a unified analysis of
0.0304289228	often leads to
0.0304282493	both forward
0.0304221706	with large state
0.0304171221	search space of
0.0304155267	the gradient information
0.0303985786	the lipschitz constant of
0.0303816939	for pairs of
0.0303807085	this discrepancy
0.0303806905	system consists of
0.0303767425	especially suitable
0.0303743572	resistance of
0.0303667807	for modeling complex
0.0303667654	the estimates of
0.0303651486	used for modeling
0.0303606004	several layers
0.0303550951	any subset
0.0303524284	structure learning from
0.0303516406	with two different
0.0303464029	a surge of
0.0303450113	task since
0.0303423752	the model in
0.0303419389	the soundness of
0.0303390822	the sake of
0.0303379838	work describes
0.0303364115	used to describe
0.0303322567	the objective in
0.0303316896	of items in
0.0303287518	to learn new tasks
0.0303271548	the limitations of existing
0.0303193950	in part by
0.0303165777	dynamic regret of
0.0303153339	in geometric deep
0.0303068042	new generation of
0.0303016185	more amenable to
0.0303009668	a reduction to
0.0303004396	the target in
0.0302939703	computationally much
0.0302906586	the agent for
0.0302892975	especially in high
0.0302871150	the generalization bound
0.0302856042	the resilience of
0.0302848378	the precision of
0.0302841537	the learning dynamics of
0.0302836000	the standard approach to
0.0302799284	the representation power
0.0302781526	linear models with
0.0302770145	place on
0.0302676335	the locations of
0.0302560549	new ensemble
0.0302523597	a higher accuracy
0.0302504968	not necessarily lead to
0.0302501527	decoding models
0.0302444390	more interpretable and
0.0302385537	a gaussian random
0.0302355850	in many research
0.0302313398	a recipe for
0.0302204340	data by using
0.0302123750	a systematic study of
0.0302033673	the covariance structure
0.0302030101	1 ^
0.0301990478	to black
0.0301988449	the singular values of
0.0301927400	the nystr \
0.0301916442	a smooth convex
0.0301820897	combination of two
0.0301808350	the stationary distribution
0.0301799940	the total amount of
0.0301787423	the proposed algorithm with
0.0301772856	all pairs of
0.0301766852	restrictive in
0.0301758507	execution time of
0.0301750714	without ground
0.0301741963	too expensive to
0.0301708438	this framework on
0.0301669512	these new algorithms
0.0301620447	this direction by
0.0301462165	time without
0.0301419807	the predictability of
0.0301414630	forefront of
0.0301311009	not generalize well
0.0301297762	a simple example
0.0301236736	the results presented
0.0301232453	a level of
0.0301207409	the state and action
0.0301193073	by conditioning
0.0301188039	given instance
0.0301142561	those based on
0.0301137834	a compact representation of
0.0301107028	a single example
0.0301105130	evolved to
0.0301042965	the problem at
0.0300995509	the feature set
0.0300928117	does not require access to
0.0300926788	a thorough analysis
0.0300784874	to provide better
0.0300783489	a method to compute
0.0300780753	useful tool for
0.0300737773	existing methods such as
0.0300724620	to several state of
0.0300657217	not accurately
0.0300590337	while using only
0.0300577054	a comprehensive study of
0.0300558893	on very large
0.0300553337	function used to
0.0300518168	the training data for
0.0300474155	many aspects of
0.0300402805	an easy to
0.0300362383	problem of interest
0.0300277615	of machine learning models
0.0300239293	perform well for
0.0300155218	the optimal one
0.0300117784	better trade off
0.0300115507	some non
0.0300014887	art performance for
0.0299959127	the accuracy and efficiency of
0.0299943171	no prior knowledge of
0.0299733888	the invertibility of
0.0299723986	a continuous relaxation of
0.0299716241	compatibility of
0.0299697578	perform better in
0.0299640822	necessary and sufficient conditions for
0.0299462098	the detection rate
0.0299438583	in computer vision and
0.0299433219	a statistical learning
0.0299415732	the reconstruction of
0.0299359434	the proposed method for
0.0299335157	the recent work
0.0299297272	a conditional probability
0.0299107862	way to model
0.0299047827	of rows and columns
0.0299041813	time algorithm for
0.0298994517	the first work to
0.0298980334	particular focus
0.0298867131	the relevant information
0.0298859312	the sparse signal
0.0298790681	the competitiveness of
0.0298712081	a comparative analysis of
0.0298632213	the global optimal
0.0298630691	the parameterization
0.0298594257	time required to
0.0298548844	often used as
0.0298508854	a growing need for
0.0298494275	the time cost
0.0298407217	then compute
0.0298364214	the reported results
0.0298325303	even for very
0.0298321132	structure as well as
0.0298255626	a unified approach to
0.0298238586	several public
0.0298169911	a lot of work
0.0298140672	novel approach for learning
0.0298064701	often associated
0.0298049940	the informativeness of
0.0298020451	a link between
0.0297979445	the practice of
0.0297949600	time series based on
0.0297887640	used together with
0.0297863262	novel concept of
0.0297821942	the unlabeled target
0.0297807917	more flexible than
0.0297786715	least as well as
0.0297786485	the most important and
0.0297755028	the mean and covariance
0.0297753620	this new algorithm
0.0297637154	$ \ widetilde \
0.0297606327	of interest to
0.0297548889	products between
0.0297531445	for generating adversarial
0.0297524343	a large amount of training
0.0297520779	a much faster
0.0297502460	challenging task of
0.0297481154	from different data
0.0297466806	better use of
0.0297463856	use data from
0.0297392601	the practicality of
0.0297392601	the tightness of
0.0297370998	the linear combination
0.0297310675	both theoretical and practical
0.0297263398	to adapt to new
0.0297152466	the field of computer
0.0297098483	the phenomenon of
0.0297090058	two lines of
0.0297081137	a cornerstone of
0.0297070020	the first attempt to
0.0297060961	the best set of
0.0297052264	tutorial for
0.0297045118	as done in
0.0297039137	the empirical performance
0.0297028825	solution under
0.0297019263	method allows for
0.0296995471	for other tasks
0.0296983114	a theoretical understanding
0.0296953280	the un
0.0296876298	to lead to
0.0296830658	in other settings
0.0296782671	the model under
0.0296770789	the data contains
0.0296763086	dimensional embedding of
0.0296696888	$ n \ to
0.0296668375	the method using
0.0296655901	the regions of
0.0296492380	the most popular methods
0.0296484819	in many problems
0.0296373473	the generation process
0.0296360384	of three components
0.0296307434	by several orders of
0.0296263717	deep network for
0.0296149037	a variety of experiments
0.0296132428	scalability by
0.0296088361	the two classes
0.0296035485	well or better than
0.0296010949	\ log \
0.0295998360	by accounting for
0.0295982879	full access to
0.0295928936	the understanding of
0.0295855904	to learn better
0.0295803514	the benchmark dataset
0.0295801829	a novel algorithm for
0.0295758002	the best performance in
0.0295747160	novel hybrid
0.0295745546	the number of possible
0.0295560982	on real and simulated data
0.0295547362	no knowledge of
0.0295470295	new approach
0.0295422398	as well as by
0.0295216410	a unified view of
0.0295012144	learning algorithms such as
0.0294942260	the proposed framework in
0.0294942260	a neural network for
0.0294922292	a promising approach for
0.0294848911	the overhead of
0.0294832353	of sampling from
0.0294830016	on synthetic as well as
0.0294779574	frequently used to
0.0294732358	the ratio between
0.0294695555	and then develop
0.0294677571	the art techniques in
0.0294676335	the consequences of
0.0294676335	the simplicity of
0.0294671063	the graph of
0.0294649545	to extract useful
0.0294614214	the reward distributions
0.0294576905	sharpness of
0.0294575977	the development of machine learning
0.0294565787	the aspect of
0.0294565787	and reconstruction of
0.0294535458	new types of
0.0294497120	corresponding loss
0.0294327054	the practical utility of
0.0294291753	given threshold
0.0294225762	the method of moments
0.0294199798	on top of existing
0.0294193036	a recommender system
0.0294181711	the law of
0.0294174834	method with two
0.0294173406	both deterministic and
0.0294147076	the excess risk of
0.0294109997	test error of
0.0294029705	to optimize for
0.0293969452	commonly known
0.0293959593	either through
0.0293883843	surfaces of
0.0293855621	the minimum number of
0.0293798745	not incorporate
0.0293780569	allows for efficient
0.0293714196	slow to
0.0293612238	a very popular
0.0293549743	a general methodology for
0.0293488551	an agent to
0.0293483357	time compared to
0.0293447572	most previous work
0.0293427826	problem with respect to
0.0293427826	results with respect to
0.0293415057	for classification and regression
0.0293378482	same conditions
0.0293335042	the bias in
0.0293322444	loss due to
0.0293307671	predict then
0.0293297189	the number of time
0.0293239767	this work aims at
0.0293238303	performance on two
0.0293189507	various computer
0.0293173752	the loss in
0.0293173752	the network as
0.0293096704	various aspects of
0.0293074095	a common approach to
0.0293064701	not help
0.0293064701	not take
0.0293023045	the gp model
0.0293009668	this class of models
0.0292992479	both upper and lower
0.0292903606	with linear function
0.0292888986	an empirical comparison of
0.0292888986	a large corpus of
0.0292888986	a finite mixture of
0.0292858609	with little or
0.0292834739	the bandit problem
0.0292813700	good statistical
0.0292732826	a lower bound for
0.0292719249	work on learning
0.0292705210	method to find
0.0292648356	of deep neural networks for
0.0292579471	a source domain to
0.0292569276	the new state of
0.0292537839	a simple modification of
0.0292497840	this gap in
0.0292490868	the top of
0.0292471496	variable models with
0.0292446991	the proposed model to
0.0292441806	different notions
0.0292437258	a set of new
0.0292434162	more complex than
0.0292372891	learning methods such as
0.0292334005	the key of
0.0292292728	model to better
0.0292286178	novel mechanism
0.0292226536	the wasserstein distance between
0.0292214029	the era of
0.0292172320	with only one
0.0292152504	contrast to most
0.0291945924	new kind of
0.0291816212	out of four
0.0291757428	difficulty by
0.0291653825	challenging than
0.0291642757	advantages of using
0.0291587613	first attempt to
0.0291479678	a supervised machine
0.0291418932	no loss of
0.0291387106	an algorithm based on
0.0291319279	manner using
0.0291300973	techniques used to
0.0291232453	the method by
0.0291232453	this model on
0.0291177703	grows to
0.0291172573	the decisions made
0.0291157623	a challenging and
0.0291090226	this problem as
0.0291049009	bounded from
0.0290966545	the model at
0.0290961848	known rates
0.0290835042	the view of
0.0290805833	need for human
0.0290805676	novel approach to
0.0290800219	resolution using
0.0290770594	not belong to
0.0290755626	a powerful technique for
0.0290747724	not applicable to
0.0290743842	for many complex
0.0290736691	for such problems
0.0290717164	model along with
0.0290673745	different reward
0.0290618407	not available for
0.0290577054	a significant increase in
0.0290561375	a hierarchical model
0.0290516733	at risk for
0.0290500673	usually leads to
0.0290428853	in brain computer
0.0290423439	yet highly
0.0290344286	approach to deal with
0.0290322137	a discussion of
0.0290276198	more sensitive to
0.0290254396	well as on
0.0290212904	same order as
0.0290192767	in machine learning for
0.0290168759	a new formulation of
0.0290090606	functions like
0.0290066314	including but not
0.0290028020	an approximation to
0.0290011535	an efficient approach for
0.0289981860	only deal with
0.0289964749	used for classification
0.0289930664	a library of
0.0289880080	computation via
0.0289871023	machinery of
0.0289741427	given access
0.0289711730	become popular for
0.0289671063	the sequence to
0.0289652669	a novel generative model
0.0289638038	on real world datasets show
0.0289633157	true value of
0.0289515045	a vector of
0.0289515045	the derivative of
0.0289509976	both linear and
0.0289432043	different variants of
0.0289399919	a short time
0.0289318015	good performance of
0.0289166519	topics over
0.0289138986	a promising technique for
0.0289031963	a very large
0.0288962049	a rate of
0.0288900334	also suffers
0.0288847994	results in several
0.0288790681	the richness of
0.0288731596	to work well
0.0288729683	merit of
0.0288653392	information within
0.0288599719	most sensitive
0.0288576304	$ n \ in
0.0288571163	the dataset with
0.0288548738	theoretical framework to
0.0288535333	the user in
0.0288535333	the environment in
0.0288531872	various sources of
0.0288466241	choose from
0.0288442750	models suffer from
0.0288417654	the measure of
0.0288409562	benchmark dataset for
0.0288407217	then performs
0.0288368213	the model's ability to
0.0288327261	the cause and
0.0288326540	whole training
0.0288308680	certain level
0.0288233193	existence of such
0.0288197603	the competitive performance
0.0288196901	the loss function to
0.0288171327	in many machine learning
0.0288074095	a single set of
0.0287979248	the extraction of
0.0287924445	the latent space to
0.0287915687	the power to
0.0287883068	simulations as well as
0.0287875794	in order to deal with
0.0287800945	with one hidden
0.0287776330	ml models in
0.0287729373	great interest to
0.0287727772	parameterized models
0.0287655218	the method also
0.0287612975	the proposed algorithm on
0.0287577684	a significant drop in
0.0287566670	to respond to
0.0287533957	time needed to
0.0287502460	challenging problem for
0.0287477436	the idea behind
0.0287452710	make better
0.0287451912	in science and engineering
0.0287399112	a unifying view of
0.0287389964	class of non
0.0287376441	not match
0.0287363038	in many applications of
0.0287337980	this study aims to
0.0287336887	efficiency while
0.0287262453	method on two
0.0287209146	the numerical solution
0.0287184197	a popular approach for
0.0287182671	generalization via
0.0287166309	a superset
0.0287107854	new understanding
0.0287098483	the burden of
0.0286985946	retrieval with
0.0286961848	known result
0.0286936145	to make use of
0.0286891448	a continuum of
0.0286801962	studied on
0.0286728174	for different tasks
0.0286660594	the objects in
0.0286655901	the statistical and
0.0286645485	during training by
0.0286637512	a novel approach based
0.0286616299	scalability as
0.0286611694	in many signal
0.0286419807	the style of
0.0286419460	with several state
0.0286382955	the mnist data
0.0286361783	the theoretical and
0.0286355755	descent algorithm to
0.0286324364	of interest as
0.0286268651	and many more
0.0286244350	in sharp contrast to
0.0286211187	error over
0.0286210822	optimal solution with
0.0286188763	very well in
0.0286162597	for various applications
0.0286120412	and robustness to
0.0286119819	this issue in
0.0286119819	this framework in
0.0286069393	a huge amount of
0.0286059667	useful in other
0.0286053272	in order to get
0.0285961456	the model on
0.0285933447	a distributionally
0.0285838159	of deep neural networks by
0.0285779617	systematic way to
0.0285711848	above problems
0.0285547362	a relatively small number of
0.0285405533	the proposed approach to
0.0285354017	used in computer
0.0285334321	the performance in
0.0285316228	any pre
0.0285291308	the foundation of
0.0285266465	on two standard
0.0285263398	on synthetic data as well as
0.0285261712	an open problem in
0.0285230890	rate of convergence for
0.0285152602	a unified deep
0.0285140242	do not account
0.0285119873	these types of
0.0285112201	often relies on
0.0285083820	same number of
0.0285028020	an order of
0.0285006485	using data collected
0.0285001709	the network with
0.0285001709	the framework to
0.0284932531	the minimal number of
0.0284866185	no assumptions on
0.0284859397	the ability to accurately
0.0284848911	the supervision of
0.0284832353	of events in
0.0284819077	of one or
0.0284743721	a principled approach for
0.0284732358	the functionality of
0.0284687224	2 \ log n
0.0284676335	the semantics of
0.0284657832	often lead
0.0284629013	$ differential
0.0284558680	certain class
0.0284438240	a team of
0.0284420940	system capable of
0.0284411274	average than
0.0284330731	same performance as
0.0284218523	open problem for
0.0284147076	the loss landscape of
0.0284142111	method to use
0.0284029990	the agent to learn
0.0283990550	also experimentally
0.0283950047	order to help
0.0283931604	also capable
0.0283908981	a significant reduction in
0.0283856029	no access
0.0283811063	accuracy due to
0.0283445526	the sample mean
0.0283443608	necessary number of
0.0283417101	in order to derive
0.0283376636	the h \
0.0283374043	the network for
0.0283374043	a graph in
0.0283370872	the proposed framework for
0.0283361353	a challenge for
0.0283355485	mainly based on
0.0283346264	better estimates
0.0283278579	an important topic in
0.0283270784	a large amount
0.0283144521	different from other
0.0283122570	high accuracy for
0.0283121208	the leaves of
0.0283085599	particular class of
0.0283074095	the practical performance of
0.0283041916	on many tasks
0.0283028989	tasks as well
0.0283016709	to outperform existing
0.0283004396	the signal of
0.0282995337	the adversarial setting
0.0282970219	a general approach for
0.0282915038	to suffer from
0.0282883113	the tails of
0.0282845674	capabilities by
0.0282838886	the causes of
0.0282824289	this problem using
0.0282802174	terms of number of
0.0282798874	convolutional network for
0.0282779304	trajectories over
0.0282616492	these questions by
0.0282606362	the adequacy of
0.0282605729	both upper
0.0282596902	performance improvement of
0.0282553467	some kind of
0.0282515763	time series via
0.0282457409	the ability to predict
0.0282446991	the training data with
0.0282407986	the mixture of
0.0282392601	the prevalence of
0.0282390917	a training procedure
0.0282366185	further improved by
0.0282349448	a study on
0.0282259349	new direction for
0.0282246140	of such models
0.0282225161	first part of
0.0282214029	in many areas of
0.0282208235	an average accuracy of
0.0282087501	to achieve near
0.0282030928	an air
0.0281919911	not present in
0.0281911274	avoid over
0.0281758762	\ delta =
0.0281668193	probabilities over
0.0281666542	forecasting at
0.0281653825	bias between
0.0281638986	to extract information from
0.0281630886	especially suitable for
0.0281564228	the dynamic behavior
0.0281431775	the stochastic gradients
0.0281430037	do not need to
0.0281361131	on artificial and real
0.0281246536	real datasets from
0.0281236736	of distribution examples
0.0281232453	a model using
0.0281225381	these two methods
0.0281202882	learning architecture for
0.0281047938	curse of dimensionality in
0.0281029177	continuity in
0.0281011044	time efficient and
0.0280974705	the two datasets
0.0280783606	novel perspective on
0.0280759039	on various real
0.0280743457	thus leading to
0.0280708480	time with respect to
0.0280690966	this paper proposes to
0.0280648278	framework to deal with
0.0280516925	full advantage of
0.0280499665	art models
0.0280483095	the sum of two
0.0280377023	the convergence behavior of
0.0280286485	the goal in
0.0280215723	and efficient way to
0.0280197222	both with and without
0.0280060549	better solution
0.0280040388	for time series prediction
0.0280001527	networks contain
0.0279991969	the forefront of
0.0279899603	to learn from
0.0279862752	the generalization capability of
0.0279832353	of research on
0.0279762049	a probabilistic model for
0.0279608660	most crucial
0.0279561935	practical use of
0.0279527001	different categories of
0.0279515045	the curvature of
0.0279407114	learning models such as
0.0279404496	the points in
0.0279403986	such as image classification
0.0279254745	without knowledge of
0.0279224127	one way of
0.0279147076	a stationary point of
0.0279131895	set into
0.0279090606	measurements than
0.0279042455	general framework to
0.0278979545	an attempt to
0.0278706777	on synthetic data as
0.0278681120	by relying on
0.0278620872	the objective function in
0.0278603559	or superior to
0.0278596143	the essence of
0.0278573230	effects of various
0.0278554766	an expression for
0.0278535333	the performance for
0.0278520675	not least
0.0278479495	clinical time
0.0278466241	stands in
0.0278460300	for regression and classification
0.0278406721	methods with respect to
0.0278357112	a novel objective function
0.0278347050	all aspects
0.0278340034	current time
0.0278323616	the temporal and
0.0278312536	\ sqrt n \
0.0278312536	\ log t \
0.0278255032	with high probability if
0.0278134284	new version
0.0278113344	\ log d \
0.0278096704	allows users to
0.0277983564	design of such
0.0277796201	the literature on
0.0277764712	the spectral properties of
0.0277683119	latter approach
0.0277608277	a graph to
0.0277577684	an unbiased estimate of
0.0277559311	the asymptotic properties
0.0277466806	novel use of
0.0277463139	analyst to
0.0277422715	a graph of
0.0277355130	linearity in
0.0277214029	a cascade of
0.0277143883	given observation
0.0277098483	the running time of
0.0277050664	a fast and scalable
0.0277033881	examples per
0.0276935464	typically do
0.0276887132	the novel approach
0.0276880247	the prediction error of
0.0276861942	need for new
0.0276825930	a piece of
0.0276817845	work well with
0.0276768969	recovery under
0.0276764562	particular class
0.0276655901	the sequences of
0.0276448538	often hard to
0.0276431276	the clustering performance
0.0276417442	the success of deep neural
0.0276362322	accuracy as well
0.0276341148	publicly available for
0.0276331994	of such systems
0.0276288103	a wealth of
0.0276286979	the ranking of
0.0276214925	random sample of
0.0276117441	one or more of
0.0276115689	a necessary condition for
0.0276020675	far only
0.0275917020	interest in using
0.0275890721	the sample efficiency of
0.0275715654	the set of possible
0.0275650995	a neural network on
0.0275449798	on several tasks
0.0275422398	as used in
0.0275345674	synthesis from
0.0275233850	propagation through
0.0275225426	the estimation procedure
0.0275217461	new results for
0.0275208476	not follow
0.0275193507	to other popular
0.0275153261	conditions than
0.0275121569	first time to
0.0274893946	novel alternative
0.0274888367	the computation and
0.0274815787	the computational and
0.0274788210	on real data from
0.0274691535	a very important
0.0274676335	the regularity of
0.0274676335	the correctness of
0.0274665777	the collected data
0.0274603300	in statistics and machine
0.0274594993	both labeled
0.0274581915	inference in such
0.0274538491	these limitations by
0.0274535458	different components of
0.0274515045	the proximity of
0.0274389967	this novel approach
0.0274377629	machine learning models such as
0.0274321175	an essential tool for
0.0274313076	a good approximation of
0.0274310377	the cifar 10 and
0.0274305681	a bias towards
0.0274276950	a signal from
0.0274129196	in time and space
0.0274117320	the reader with
0.0274068152	able to process
0.0274065316	the training set of
0.0274064025	a member of
0.0274042111	not take into account
0.0273999896	the dataset of
0.0273942828	number of parameters in
0.0273915025	simple way to
0.0273892529	to generalize to unseen
0.0273880523	new analysis of
0.0273819279	bounded as
0.0273678384	and other related
0.0273659543	the asymptotic properties of
0.0273627835	the performance of several
0.0273616185	using ideas from
0.0273573829	the relation of
0.0273571163	the kernel of
0.0273566906	worse in
0.0273528470	a number of experiments
0.0273495070	this new class of
0.0273447294	few theoretical
0.0273423897	in various machine learning
0.0273294745	presence of non
0.0273278579	a posterior distribution over
0.0273268969	rate without
0.0273168440	both dense and
0.0273164148	work showed
0.0273068949	the proposed method to
0.0272988381	the bias and variance of
0.0272983087	one advantage
0.0272964098	different types of data
0.0272840697	a convnet
0.0272836016	either focus on
0.0272744223	the most popular algorithms
0.0272676335	a proof of
0.0272676335	the constraint of
0.0272626171	the pros
0.0272609575	an efficient implementation of
0.0272605729	a determinantal
0.0272579832	a mean absolute
0.0272537839	an important component of
0.0272536715	the effectiveness and robustness
0.0272490734	privacy while
0.0272416839	the primal and
0.0272415899	best practices for
0.0272334005	a dataset for
0.0272334005	the signal to
0.0272288785	only depends
0.0272244275	with other methods
0.0272149739	the key contribution of
0.0272145257	the prediction performance of
0.0272113646	in \ mathbb r ^ m
0.0272081705	an alternative for
0.0272073093	most similar to
0.0271911274	magnitude while
0.0271878964	than other models
0.0271856940	also vulnerable
0.0271660594	the discriminator of
0.0271636963	efficiently via
0.0271554766	an answer to
0.0271419807	the dependency of
0.0271396700	\ beta \
0.0271374701	new type of
0.0271373980	an improved version of
0.0271290140	a conditional distribution
0.0271279514	future work in
0.0271223861	a multiple kernel
0.0271111762	novel application
0.0271090226	the generalization of
0.0271071163	a model from
0.0271068033	problem known as
0.0271018024	a general way
0.0270923825	new line of
0.0270712867	the modeling of
0.0270699160	the incorporation
0.0270665096	based clustering with
0.0270605037	novel supervised
0.0270477798	the baseline models
0.0270419067	the mode of
0.0270378451	used instead of
0.0270371379	order methods such as
0.0270348473	the seminal work
0.0270295182	mainly based
0.0270295182	many vision
0.0270286485	this model in
0.0270239155	the r \
0.0270216410	a simple variant of
0.0270100667	more robust to adversarial
0.0270010967	using only one
0.0269991969	do not apply to
0.0269871140	an average of
0.0269821931	neural network models with
0.0269712980	problem of sampling from
0.0269610279	the ability to generalize
0.0269384284	without pre
0.0269340470	often used for
0.0269307546	in order to demonstrate
0.0269244350	to quickly adapt to
0.0269233072	this paper attempts to
0.0269143762	idea of using
0.0269138986	a vast number of
0.0269125377	models with respect to
0.0269087613	a priori known
0.0269073123	each element of
0.0269060192	first work to
0.0268962049	the efficiency and
0.0268943253	to obtain good
0.0268938491	not depend on
0.0268934803	in many machine learning tasks
0.0268874902	a fundamental task for
0.0268798745	first theoretically
0.0268712081	the temporal evolution of
0.0268627835	the model provides
0.0268550951	100 datasets
0.0268483163	good performance on
0.0268435635	adaptation via
0.0268368696	well as real data
0.0268312699	a linear system
0.0268299314	the basics of
0.0268298729	the encoder network
0.0268237424	the development of novel
0.0268177550	use of deep neural networks
0.0268173559	a model with
0.0268172708	used to address
0.0268148790	a powerful method for
0.0268114087	by taking into
0.0268074095	a common approach for
0.0267903825	complex than
0.0267898747	both theoretically and
0.0267876205	order to further
0.0267864118	work well in
0.0267821048	the proposed algorithms in
0.0267819279	scheduling of
0.0267811845	the credibility of
0.0267755823	the deviation of
0.0267616299	includes as
0.0267507098	class of generative models
0.0267502115	to more complex
0.0267501709	the extension of
0.0267493689	of nodes in
0.0267493689	the change in
0.0267451507	several aspects of
0.0267328409	statistical models with
0.0267236988	a large margin in
0.0267188109	time series data with
0.0267158007	a novel type of
0.0267156549	to detect whether
0.0267067705	the promising performance
0.0266961848	more crucial
0.0266921695	on new tasks
0.0266911274	expensive than
0.0266840495	show both theoretically
0.0266821498	the entire training
0.0266776571	a framework in
0.0266775902	the impacts of
0.0266766185	most existing work
0.0266757428	flexibility by
0.0266651967	a classification accuracy of
0.0266556494	to make inference
0.0266448538	or impossible to
0.0266416879	to shed light on
0.0266382042	these results indicate
0.0266365281	a prediction of
0.0266215980	an explosion of
0.0266089020	the unrealistic
0.0266085041	the spatial distribution
0.0266055621	the data at
0.0266019733	novel methods for
0.0265966545	the model uses
0.0265957151	the rapid development of
0.0265917339	the predictive models
0.0265842488	the method of choice for
0.0265691615	of machine learning in
0.0265672922	with applications ranging from
0.0265640672	novel framework for learning
0.0265596704	does not lead to
0.0265595555	to generate samples from
0.0265571242	well in terms of
0.0265516733	both single and
0.0265404905	not easy to
0.0265347603	with other existing
0.0265291308	the possibility to
0.0265241932	$ regret for
0.0265193442	very similar to
0.0265068152	allows to train
0.0265063986	each layer in
0.0265055837	art models on
0.0264935653	any prior knowledge of
0.0264922292	an empirical analysis of
0.0264914117	in many other
0.0264876144	useful tools for
0.0264818152	to other methods
0.0264768969	works only
0.0264743721	an error rate of
0.0264687613	new opportunities for
0.0264676335	the complexities of
0.0264676335	the growth of
0.0264671063	the task to
0.0264594993	both mnist
0.0264549221	also serve as
0.0264517812	only interested in
0.0264438240	a partition of
0.0264425956	same underlying
0.0264389967	on two large
0.0264279861	an image to
0.0264205735	expressive than
0.0264204770	do not scale to
0.0264170981	a point process
0.0264145765	both artificial and
0.0264053272	both statistical and
0.0264010420	the statistical and computational
0.0263995672	the discriminator in
0.0263951706	learning system for
0.0263896655	able to show
0.0263858985	an open question in
0.0263608617	the intensity of
0.0263593470	experiments on real and
0.0263483729	or absence
0.0263390822	a vast amount of
0.0263378963	and other areas
0.0263309361	forgetting by
0.0263229092	the use of deep neural
0.0263150485	almost all
0.0263013553	simple example
0.0262944686	both types of
0.0262922420	data available for
0.0262912805	the learning problem as
0.0262911277	a network to
0.0262801012	a deep neural network for
0.0262788310	and lower bounds on
0.0262788045	the kernel mean
0.0262638478	sequence models with
0.0262629605	this set of
0.0262612805	the data under
0.0262594532	the arm with
0.0262509154	the particular case of
0.0262496598	existing ones in
0.0262457410	on two widely
0.0262452124	the best available
0.0262422715	a dataset in
0.0262360616	both discrete and
0.0262357231	the aggregation of
0.0262262730	in contrast to most
0.0262254274	many areas of
0.0262244520	a matrix of
0.0262146373	formation of
0.0262074449	to converge at
0.0262033986	new insights on
0.0262030101	latter two
0.0262005653	on two different
0.0261973925	method with respect to
0.0261904496	the estimate of
0.0261834803	novel way of
0.0261825490	shortcomings by
0.0261584604	not need to
0.0261569224	a significant improvement in
0.0261566228	two forms
0.0261561207	such as stochastic gradient
0.0261551946	the current work
0.0261532457	any assumption
0.0261370389	a system for
0.0261280137	measure between
0.0261265257	the training of neural
0.0261232453	the key for
0.0261166297	a key problem in
0.0261137834	the potential benefits of
0.0261135461	necessary conditions for
0.0261090226	the interpretation of
0.0261066187	most predictive
0.0260962558	these methods do not
0.0260860553	an important area of
0.0260676258	an effective model
0.0260671140	the estimation error of
0.0260645971	the capacity to
0.0260562336	certain number of
0.0260554363	the impact of different
0.0260538158	of people in
0.0260527740	above problem
0.0260441187	any probability
0.0260430975	the robustness of deep neural
0.0260365618	the short time
0.0260270226	only up to
0.0260251111	in such problems
0.0260206979	the global convergence
0.0260135613	such as linear regression
0.0260102927	method to several
0.0260083820	same set of
0.0260072103	time algorithm for learning
0.0260030612	uncertainty associated
0.0260001709	the robustness to
0.0259930664	a chain of
0.0259891129	a physical system
0.0259871140	the requirement of
0.0259871140	the proportion of
0.0259791762	the generative model and
0.0259769208	factor of two
0.0259743721	a large volume of
0.0259732358	the last layer of
0.0259727614	become popular in
0.0259676508	amount of work
0.0259515045	the variability of
0.0259464476	on benchmark datasets show
0.0259336884	an investigation of
0.0259323348	the stochastic variance
0.0259315450	$ \ epsilon ^
0.0259266185	further extended to
0.0259241340	an effective way to
0.0259173785	a grand
0.0259156855	the global convergence of
0.0259143618	novel semi
0.0259000500	work focused
0.0258948247	more general than
0.0258947222	both regression and
0.0258918759	this line of work
0.0258905901	to many other
0.0258873596	not depend
0.0258850236	the arts in
0.0258844869	the recent development of
0.0258765032	most prior work
0.0258747973	a specificity of
0.0258712081	a probability distribution over
0.0258580784	a specific form of
0.0258397184	in order to better
0.0258323977	often difficult to
0.0258307671	recognition via
0.0258302025	the same accuracy as
0.0258263043	the model with
0.0258262597	a very challenging
0.0258238804	an extension to
0.0258192865	on three different
0.0258173752	the sparsity in
0.0258171327	a new objective function
0.0258165687	the spatial and
0.0258161277	the gradient in
0.0258158580	an effective method to
0.0258105130	expressive models
0.0258088154	several orders of
0.0258075433	model on several
0.0258044403	the suboptimality of
0.0258001292	yield more
0.0257927678	a systematic way
0.0257882320	a mixture of two
0.0257774095	the data through
0.0257763893	new proof
0.0257750286	the dynamics in
0.0257732854	novel procedure
0.0257732854	novel strategy
0.0257683119	not suffer
0.0257626517	the content of
0.0257513534	training of models
0.0257493689	the user to
0.0257457409	the available training data
0.0257452539	features as well
0.0257438039	new interpretation
0.0257431693	models built on
0.0257426962	investigated to
0.0257422715	the solution in
0.0257363779	of distribution samples
0.0257336578	a challenging task due to
0.0257252548	while allowing for
0.0257242368	this task by
0.0257178027	a one hidden
0.0257172715	on different types of
0.0257152213	an effective approach to
0.0257150272	a reliable and
0.0257119701	a comprehensive survey of
0.0257068772	number of neurons in
0.0257035485	for financial time
0.0257018822	t \ in
0.0257006834	learning architectures for
0.0256961848	more insights
0.0256774029	whole network
0.0256766376	number of clusters in
0.0256741340	both accurate and
0.0256724155	various levels of
0.0256688623	in different settings
0.0256578442	learning problems such as
0.0256570121	the different components
0.0256460197	such as convolutional neural
0.0256446437	family of algorithms for
0.0256442419	in various real
0.0256353785	the ubiquity of
0.0256334625	enable more
0.0256325649	robustness than
0.0256280137	information during
0.0256251984	the different methods
0.0256231844	the wealth of
0.0256220974	not amenable to
0.0256215980	three different types of
0.0256119819	these algorithms in
0.0256080583	the balance of
0.0256068392	novel geometric
0.0256050426	a simple but
0.0256023440	the temporal dynamics of
0.0255983117	prediction via
0.0255967102	$ \ tilde o \
0.0255961456	the method to
0.0255939699	often more
0.0255921968	to noise ratio of
0.0255910942	used for prediction
0.0255908007	and scalability of
0.0255879544	the scarcity of
0.0255845843	a major challenge in
0.0255843469	different ways of
0.0255830739	a stand
0.0255765630	very large number of
0.0255755626	the adversarial robustness of
0.0255740507	most used
0.0255691615	the small number of
0.0255679133	a sequential learning
0.0255662338	an image of
0.0255628764	a recurrent network
0.0255596704	of practical interest
0.0255536621	the ubiquity
0.0255500172	use in many
0.0255370464	and do not scale
0.0255348065	also very
0.0255253245	the problem of sampling from
0.0255218965	classification models with
0.0255001709	the method with
0.0254911334	new concentration
0.0254769985	perform much
0.0254703722	this approach using
0.0254589064	the model used
0.0254547626	for training generative
0.0254535458	each type of
0.0254527278	a trained neural
0.0254453152	a complex and
0.0254313398	to attend to
0.0254276950	the surface of
0.0254146205	known results for
0.0253997250	a new benchmark for
0.0253860073	$ x \ in \
0.0253854123	each level of
0.0253813979	other widely used
0.0253733474	experiments with synthetic and
0.0253635279	new algorithms for
0.0253633386	benefits of using
0.0253368213	the decision boundaries of
0.0253340802	the vertices of
0.0253250336	second application
0.0253248371	and more accurate than
0.0253175956	same object
0.0253140715	to deal with large
0.0253118407	the previous work
0.0253106166	a sufficient condition for
0.0252983087	a straight
0.0252971281	a general model for
0.0252928943	different areas of
0.0252826948	two levels of
0.0252790822	any assumptions on
0.0252769518	the forward and backward
0.0252753095	only focus on
0.0252639732	well without
0.0252602020	with data size
0.0252452124	a subclass of
0.0252401486	used to prove
0.0252392601	the widespread use of
0.0252291948	amount of samples
0.0252281872	a relatively new
0.0252269151	the literature for
0.0252227885	particular choice of
0.0252213857	also applies
0.0252175428	the subset of
0.0252154496	a sparse and
0.0252109142	datasets to show
0.0252000214	to generate novel
0.0251991530	new measure of
0.0251811683	from multiple data
0.0251783108	on simulated and real
0.0251765015	not involve
0.0251765015	not share
0.0251757301	markov models with
0.0251660594	the generator of
0.0251616492	very popular for
0.0251582628	the sentiment of
0.0251566228	new activation
0.0251473125	degrade in
0.0251322425	and then using
0.0251322181	critic with
0.0251302707	in recent years due
0.0251246282	an upper bound for
0.0251145118	and other fields
0.0251125689	the scaling of
0.0251037618	a bayesian method
0.0250879544	the chance of
0.0250838012	novel search
0.0250835042	the notions of
0.0250813399	well on real
0.0250780231	the deployment of
0.0250756735	and thus do
0.0250720039	accuracy during
0.0250509841	both computational and
0.0250500172	a novel framework to
0.0250427361	new method for
0.0250424304	the tradeoffs between
0.0250382320	the importance of different
0.0250332142	no better
0.0250309267	this challenge by
0.0250305653	an extensive evaluation of
0.0250231012	many orders of
0.0250225322	to several other
0.0250214602	examples as well
0.0250155218	the target models
0.0250084630	the predictive power of
0.0250001709	the variety of
0.0249983117	detection through
0.0249942767	the objective function to
0.0249893143	the setup of
0.0249857860	the method in
0.0249832353	to apply in
0.0249785002	name of
0.0249759349	a small amount
0.0249743765	most suitable for
0.0249713856	the original time
0.0249706889	the practical side
0.0249535458	a generalisation of
0.0249488798	through numerical experiments on
0.0249484528	novel variant
0.0249343765	also applies to
0.0249312715	more accurate models
0.0249156229	often leading to
0.0249087613	useful information from
0.0248876395	the early stages of
0.0248870389	the approach by
0.0248867946	the distance between two
0.0248823953	an important tool for
0.0248720974	not tailored to
0.0248692828	learning techniques such as
0.0248690945	the experimental results show
0.0248659376	both image and
0.0248594337	navigation with
0.0248575094	and cons of
0.0248502093	the rows of
0.0248299314	an indicator of
0.0248243457	only depend on
0.0248227978	either fail to
0.0248203797	an example to
0.0248164118	the predictive accuracy of
0.0248054777	general way to
0.0247988381	the point of view of
0.0247942045	any subset of
0.0247809646	of deep neural networks in
0.0247732328	approach to find
0.0247626517	the eigenvalues of
0.0247626517	for graphs with
0.0247626517	the eigenvectors of
0.0247563947	full joint
0.0247544764	the mixing time of
0.0247494880	network models with
0.0247481731	by interacting with
0.0247387219	the more challenging
0.0247358293	a best
0.0247325854	the approximation quality
0.0247196070	the hope of
0.0247152213	a critical task in
0.0246999066	the label of
0.0246993311	those used in
0.0246949123	other cases
0.0246949123	most natural
0.0246912231	the classification accuracy of
0.0246904479	a new approach based
0.0246819150	new way of
0.0246780789	space models for
0.0246779471	the graph into
0.0246770789	to compare different
0.0246735461	many kinds of
0.0246626946	a ^ \
0.0246611056	a systematic and
0.0246583506	the internet of
0.0246418932	both speed and
0.0246411274	optimum with
0.0246405901	the sources of
0.0246405901	and prediction with
0.0246231844	the university of
0.0246157623	the methodology and
0.0246152648	the number of available
0.0246121479	a key step in
0.0246080583	both classification and
0.0245999018	two groups of
0.0245993721	the computational efficiency of
0.0245742710	the first application of
0.0245699160	the prospect
0.0245594939	second moment of
0.0245567813	not seem to
0.0245442045	then extended to
0.0245422398	these models by
0.0245362997	a principled method for
0.0245347331	a demonstration of
0.0245334095	novel combination
0.0245306889	all kinds of
0.0245270226	used in various
0.0245040306	to provide more
0.0245037668	then used for
0.0244820136	large enough to
0.0244817616	in several applications
0.0244771372	most difficult
0.0244692481	the previously known
0.0244676335	the difference of
0.0244607854	various research
0.0244545766	the computational and statistical
0.0244535458	a new definition of
0.0244530877	the state space of
0.0244438240	the runtime of
0.0244380340	possibility of using
0.0244164170	the ensemble of
0.0244144122	the overall performance of
0.0244126133	the network structure and
0.0244101973	different type of
0.0244074653	the learner to
0.0244060579	good approximation of
0.0244037439	both simulated and
0.0243909034	the task at
0.0243835113	the specific case of
0.0243759154	a particular case of
0.0243749896	the classifier to
0.0243611374	both spatial and
0.0243603738	the increasing popularity of
0.0243574163	both qualitatively and
0.0243556229	also suffer from
0.0243532928	of two types
0.0243529024	the error in
0.0243488551	the interaction with
0.0243488551	the knowledge in
0.0243365281	the policy to
0.0243355658	the quality of life
0.0243340802	the position of
0.0243301829	the potential for
0.0243204340	based models for
0.0243193283	through experiments on
0.0243137261	models with different
0.0243081925	the removal of
0.0243081064	known issue
0.0243054836	and decision making in
0.0243038071	for many tasks
0.0243013553	prediction made
0.0242945851	the least
0.0242913451	not account for
0.0242911277	for training of
0.0242875914	many machine learning models
0.0242868207	two different types of
0.0242827090	a means to
0.0242824289	for problems with
0.0242812769	this line of
0.0242789652	a significant amount
0.0242787807	the details of
0.0242754396	the lasso in
0.0242730065	both static and
0.0242629605	the first time to
0.0242457865	novel family of
0.0242452124	by sampling from
0.0242446330	the compositional structure of
0.0242407986	the memory and
0.0242387849	a recipe
0.0242360616	the next generation of
0.0242360253	different parts
0.0242332399	the projection of
0.0242177775	interest in machine
0.0242158007	new class of
0.0242144465	other methods in
0.0242140822	with billions of
0.0242066499	the core of many
0.0242064025	the intractability of
0.0242033986	two families of
0.0241951124	x \ to
0.0241945360	widely used method for
0.0241924343	models in machine
0.0241911922	used for training and
0.0241810212	selection through
0.0241799030	the sparsest
0.0241794789	the algorithm to
0.0241660594	the words in
0.0241566228	time polynomial
0.0241460415	the sequential nature of
0.0241374701	several classes of
0.0241348348	more commonly
0.0241328054	very natural
0.0241314856	optimal if
0.0241147596	gradient methods such as
0.0241102812	on synthetic and
0.0241095623	very successful in
0.0241090226	the accuracy and
0.0241056119	the forward and
0.0240962938	and also show
0.0240925274	out cross
0.0240837157	the problem in
0.0240813903	to enable more
0.0240801368	a probability distribution on
0.0240671140	a high level of
0.0240587208	with emphasis on
0.0240571705	in part to
0.0240571705	n \ to
0.0240536217	effect of using
0.0240392604	a vast majority of
0.0240306287	models such as deep neural
0.0240278989	inference as well
0.0240155218	the effect of using
0.0240130696	due to lack of
0.0240128411	two real data
0.0240062952	degrees of freedom of
0.0240026013	area of research in
0.0240001709	for different types of
0.0239923641	a novel notion of
0.0239871140	the contributions of
0.0239846817	the formalism of
0.0239743721	an empirical study on
0.0239545151	evaluation across
0.0239404496	the estimator of
0.0239395377	the proposed approach allows
0.0239168133	especially important in
0.0239156855	the statistical properties of
0.0239023239	the integrity of
0.0239010431	to produce better
0.0238984328	the prediction accuracy and
0.0238910388	the empirical performance of
0.0238711143	this assumption does
0.0238660301	well studied in
0.0238647949	the lasso problem
0.0238573950	on real data show
0.0238570767	each node to
0.0238551752	instead of only
0.0238464590	a stable and
0.0238453963	as well as real data
0.0238452698	a promising solution to
0.0238424334	the performance on
0.0238424334	the information from
0.0238368213	the practical usefulness of
0.0238337755	while previous work
0.0238263043	the input of
0.0238241031	more efficient in
0.0238165687	of communities in
0.0238103213	a neural network with
0.0238074604	the development of new
0.0238074095	the query complexity of
0.0238074095	a sparse representation of
0.0238044403	the restriction of
0.0237995822	to balance between
0.0237973925	approach with respect to
0.0237813911	to generalize across
0.0237774095	the data via
0.0237739822	good candidate for
0.0237678889	to extract features from
0.0237629605	of work in
0.0237629605	more efficient to
0.0237626517	the distance of
0.0237626517	the alignment of
0.0237626517	a space of
0.0237626517	the weight of
0.0237626517	the decision of
0.0237625350	access only
0.0237537839	a crucial step in
0.0237493689	the resulting models
0.0237444054	much recent
0.0237243721	the empirical success of
0.0237209437	and lower bounds for
0.0237187613	often limited by
0.0237172715	the problem of learning with
0.0237158007	both real and
0.0237121199	an active area of
0.0237107730	results on simulated and
0.0237059708	both in theory and in
0.0237038036	a superposition of
0.0236887419	importance of different
0.0236779404	the lower bound of
0.0236743918	the assignment of
0.0236711356	as compared to existing
0.0236656487	with at most
0.0236430179	the lower bound in
0.0236325649	bound than
0.0236234838	better generative
0.0236212564	the dynamic nature of
0.0236132428	minima with
0.0235999018	not observed in
0.0235996980	not required to
0.0235961456	the network to
0.0235928936	a distribution of
0.0235928936	the components of
0.0235908007	a procedure for
0.0235856561	whole graph
0.0235830611	the input to
0.0235692546	well as two
0.0235657053	this framework by
0.0235641448	the severity of
0.0235596704	some degree of
0.0235585426	a reduction of
0.0235577319	several types of
0.0235563322	each other in
0.0235527759	show significant improvements in
0.0235522295	the association between
0.0235453213	approach allows to
0.0235362997	an experimental comparison of
0.0235341336	the classification performance of
0.0235285256	a novel neural network
0.0235145111	several synthetic and real
0.0235042041	the local and global
0.0235012880	well or better
0.0234989820	by using only
0.0234907435	in machine learning and data
0.0234840419	the visualization of
0.0234836578	in contrast to other
0.0234676335	the trajectory of
0.0234676335	the hardness of
0.0234644465	the population of
0.0234627695	various simulated
0.0234618566	in order to further
0.0234582353	novel approach of
0.0234497180	the effect of different
0.0234320974	an opportunity for
0.0234241340	a new form of
0.0234180712	not correspond to
0.0234118791	the reasons for
0.0234118070	without prior knowledge of
0.0234112685	at risk of
0.0234096127	in different scenarios
0.0234053272	both interpretable and
0.0233791843	the cram \
0.0233680936	with two real
0.0233672847	the ability to generate
0.0233653927	to achieve more
0.0233611374	both source and
0.0233510431	often required to
0.0233340802	the update of
0.0233278828	time horizon of
0.0233221886	promising new
0.0233211818	attention during
0.0233177546	by making use
0.0233131380	advantage of using
0.0233096704	this limitation by
0.0233043689	novel approach based on
0.0233037055	the literature as
0.0232943405	the advancement
0.0232873346	in many applications such
0.0232787807	the response of
0.0232787807	the exploitation of
0.0232787807	the convexity of
0.0232590024	the posterior distribution over
0.0232560998	the distance to
0.0232479538	example of such
0.0232476404	to derive new
0.0232446330	an em algorithm for
0.0232387849	a prime
0.0232383182	models as well
0.0232357231	for datasets with
0.0232357231	to control for
0.0232255662	both sparse and
0.0232234879	the superposition of
0.0232104329	learn without
0.0232064025	the signs of
0.0232040111	of deep learning for
0.0232000214	the past two
0.0231991530	available data from
0.0231911250	in order to do
0.0231829632	the dynamic behavior of
0.0231805681	a novel connection between
0.0231790794	certain conditions on
0.0231784085	time complexity in
0.0231734462	the representational power of
0.0231691063	problem of learning from
0.0231660222	case of two
0.0231437698	new upper
0.0231371532	model on two
0.0231256664	to other domains
0.0231243555	learning with non
0.0231228602	algorithms need to
0.0231036567	the execution time
0.0230894331	a new analysis of
0.0230704901	the dataset into
0.0230534096	performance in several
0.0230509841	both temporal and
0.0230491296	the proposed work
0.0230490756	the effects of different
0.0230426965	available online at
0.0230284733	any set of
0.0230279215	the proposed method against
0.0230068794	make sense of
0.0229898418	new set of
0.0229876471	the attacker to
0.0229830016	both unsupervised and
0.0229809162	a library for
0.0229708392	through extensive experiments on
0.0229625829	perform well with
0.0229404496	the neurons in
0.0229321239	with respect to other
0.0229287423	the prior knowledge of
0.0229219437	in training deep
0.0229204335	these two models
0.0229174763	with comparable or
0.0229118791	the proliferation of
0.0229117157	manage to
0.0229073209	the dataset consists of
0.0229037439	the transferability of
0.0229020418	learning models on
0.0228908093	new defense
0.0228867946	the roles of
0.0228811132	on datasets with
0.0228750826	to develop new
0.0228639866	approaches usually
0.0228619819	a recent and
0.0228605079	the explosion of
0.0228502093	the execution of
0.0228385028	with varying levels of
0.0228327261	the discriminator to
0.0228173752	the variations of
0.0228074095	the minimax rate of
0.0228058830	the main challenges in
0.0227988381	the optimal value of
0.0227949165	the magnitudes of
0.0227889220	network with two
0.0227863394	$ regret in
0.0227836681	on several different
0.0227836000	for uncertainty estimation in
0.0227812048	a starting point for
0.0227713310	decade of
0.0227658922	benefit of using
0.0227626517	the entries of
0.0227541120	the network during
0.0227537839	an empirical evaluation of
0.0227501709	the reduction in
0.0227493689	the category of
0.0227493689	an estimation of
0.0227493689	the problem into
0.0227452124	in comparison with other
0.0227446330	the discriminative power of
0.0227430116	a promising direction for
0.0227339116	three classes of
0.0227224483	in many tasks
0.0227212247	mostly based on
0.0227206929	models tend
0.0227199111	existing work in
0.0227158007	a novel extension of
0.0227144465	the community to
0.0227059708	both in theory and
0.0227014344	formulated to
0.0227000379	these methods do
0.0226991574	task in many
0.0226973199	generally more
0.0226949603	an efficient method for
0.0226936893	from two different
0.0226816664	very challenging to
0.0226763710	the baseline system
0.0226754088	go on
0.0226747241	the generalization error for
0.0226702151	both quantitative and
0.0226689007	a much more
0.0226534471	the prediction time
0.0226507085	a graph from
0.0226432817	novel algorithm for
0.0226192171	effect of different
0.0226138602	to build more
0.0225934870	same objective
0.0225928936	the approximation of
0.0225805653	a simple modification to
0.0225755626	the competitive performance of
0.0225755626	the key challenges in
0.0225720692	reader with
0.0225699603	the general case of
0.0225585426	the union of
0.0225551577	the improvement of
0.0225479507	a comparable performance
0.0225362997	a critical challenge in
0.0225271746	between two sets of
0.0225211960	value decomposition of
0.0225196546	technique used
0.0225001709	the decomposition of
0.0225001709	a probability of
0.0225001709	a graph with
0.0224846535	a popular approach to
0.0224840419	the improvement in
0.0224801342	of deep neural networks with
0.0224676335	a sample from
0.0224676335	the initialization of
0.0224596602	the performance of different
0.0224580057	for training and testing
0.0224535458	a cohort of
0.0224527001	very popular in
0.0224506676	a case study of
0.0224453152	the discrete and
0.0224438240	the rate at
0.0224411274	limitation by
0.0224370065	effects of different
0.0224363889	a novel formulation of
0.0224317558	the core idea of
0.0224168133	an improvement over
0.0224166866	novel notion of
0.0224155995	achieves much
0.0224014201	work attempts to
0.0223872424	recognition through
0.0223757382	for strongly convex and
0.0223734838	used tools
0.0223696898	one approach to
0.0223676275	efficient way to
0.0223620412	the algorithm on
0.0223586357	and then use
0.0223502093	with hundreds of
0.0223488551	the diversity in
0.0223488551	a point of
0.0223488551	the hierarchy of
0.0223417290	same level of
0.0223366984	able to generalize to
0.0223357460	a significant challenge to
0.0223252596	on imagenet with
0.0223169911	in comparison to other
0.0223157571	novel model for
0.0223151486	for various tasks
0.0223068213	the disadvantages of
0.0223012014	learning applications such as
0.0222824289	a scalable and
0.0222822261	problem of learning to
0.0222804497	an algorithm to
0.0222787807	the determination of
0.0222787807	the stability and
0.0222787807	a description of
0.0222787807	the method uses
0.0222740762	the improved performance of
0.0222656817	the differences between
0.0222591731	a popular and
0.0222564271	techniques do not
0.0222518651	a natural way to
0.0222461037	the underlying system
0.0222452124	a taxonomy of
0.0222445037	the data as
0.0222393602	from scratch on
0.0222383518	an efficient approach to
0.0222379685	new approach to
0.0222332399	the manifold of
0.0222332399	the covariance of
0.0222241427	without access
0.0222227885	two orders of
0.0222217748	the travel time
0.0222205757	reduction through
0.0222158007	the previous best
0.0222098483	a novel application of
0.0222098483	a new technique for
0.0221963310	the data based on
0.0221956080	the property of
0.0221921063	k \ in
0.0221859121	in terms of mean
0.0221639344	trivial to
0.0221503806	two algorithms for
0.0221496914	this problem in
0.0221374779	in machine learning as
0.0221333506	of errors in
0.0221332352	to design new
0.0221294789	a model on
0.0221218496	a tool for
0.0221155995	efficiency during
0.0221122746	a representation of
0.0221112549	the proposed method uses
0.0221099794	an assessment of
0.0220964029	the interplay of
0.0220840948	such as generative adversarial
0.0220838012	novel measure
0.0220763968	to generalize better
0.0220721479	not capable of
0.0220655728	new framework for
0.0220491755	optimal value of
0.0220409952	first analysis of
0.0220361147	number of nodes in
0.0220309267	both theoretical and
0.0220286485	this challenge in
0.0220282457	novel transfer
0.0220264691	not scale to
0.0220100864	a major challenge for
0.0220032108	a massive amount of
0.0220001709	the methodology of
0.0220001709	the gap of
0.0219997840	this problem via
0.0219993927	the generator to
0.0219830784	a powerful approach to
0.0219705301	the inability to
0.0219515045	a change in
0.0219402775	to train than
0.0219295891	a common way
0.0219073209	a generalization bound for
0.0218880523	first algorithm with
0.0218835113	a practical algorithm for
0.0218808953	different groups of
0.0218681059	on several large
0.0218593701	to achieve good
0.0218506361	recent years due to
0.0218491427	new idea
0.0218482679	novel algorithms for
0.0218450098	the mismatch between
0.0218449123	good policy
0.0218396676	an online algorithm for
0.0218285333	a policy to
0.0218282498	the opportunity to
0.0218135655	a convex relaxation of
0.0218121208	the radius of
0.0218072567	for learning to
0.0217833643	a bayesian approach for
0.0217827090	the conditioning of
0.0217824289	the approach using
0.0217813039	such as principal component
0.0217774095	a number of different
0.0217750286	the true value of
0.0217725854	the training process of
0.0217665038	best performance in
0.0217655218	one class of
0.0217644552	both clean and
0.0217612975	the unsupervised learning of
0.0217594532	the independence of
0.0217518651	a series of experiments on
0.0217504968	novel method for
0.0217493689	the proof of
0.0217493689	the probabilities of
0.0217493689	the history of
0.0217493689	the separation of
0.0217493689	the game of
0.0217322770	a case study in
0.0217312157	both input and
0.0217275823	these issues by
0.0217274181	does not scale to
0.0217263576	under certain conditions on
0.0217252548	the theoretical side
0.0217200762	model with two
0.0217155995	potentially non
0.0217144465	a baseline for
0.0216898519	the communication cost of
0.0216855621	the hidden layers of
0.0216855621	a bayesian framework for
0.0216843765	to create new
0.0216747241	the cost function of
0.0216678202	a simple approach to
0.0216529292	applicability of such
0.0216452553	an efficient algorithm to
0.0216418932	the bulk of
0.0216118066	different representations of
0.0216073100	to compete with
0.0216060902	the true number of
0.0216031204	at different levels of
0.0215964029	this question by
0.0215961456	the region of
0.0215931324	these methods rely on
0.0215928936	the elements of
0.0215911847	as shown by
0.0215837660	some properties of
0.0215775275	by conditioning on
0.0215700042	on two real datasets
0.0215585426	the scenario of
0.0215573913	input and output of
0.0215362997	an important application of
0.0215362997	a key tool in
0.0215301438	a systematic approach to
0.0215230065	two notions of
0.0215209487	some notion of
0.0215170116	for many machine
0.0215103953	door for
0.0215049881	the asymptotic performance
0.0214840419	the norms of
0.0214840419	the prior and
0.0214693173	different sources of
0.0214676335	a means of
0.0214676335	an estimator of
0.0214658007	a new paradigm for
0.0214604967	in various machine
0.0214603953	necessity to
0.0214603953	makers with
0.0214555220	completion under
0.0214513863	order to use
0.0214506676	a method based on
0.0214496898	the error rate of
0.0214444324	a variety of synthetic and
0.0214420360	model on three
0.0214361789	the generalization capabilities of
0.0214294013	particular form of
0.0214068040	series via
0.0213997451	a robust version of
0.0213981763	synthetic data as well as
0.0213816939	as input for
0.0213709813	to obtain more
0.0213690793	for early detection of
0.0213639866	effectively than
0.0213519512	the results clearly
0.0213484512	the leading cause of
0.0213424334	the method on
0.0213419629	a key element of
0.0213340802	the flow of
0.0213318901	for many real
0.0213264538	novel approach for
0.0213237455	the simulation results show
0.0213221886	information associated
0.0213211613	the method does
0.0213118407	and empirically show
0.0213117291	the ability to capture
0.0213087293	the optimal rate of
0.0212787807	the concentration of
0.0212787807	a dataset with
0.0212740762	the results obtained by
0.0212726812	or absence of
0.0212612805	an ensemble of models
0.0212560998	the identifiability of
0.0212467040	all aspects of
0.0212452124	many types of
0.0212388553	accurately than
0.0212332399	an embedding of
0.0212285859	to obtain better
0.0212221032	a novel variant of
0.0212099391	to existing models
0.0212064025	different layers of
0.0212040111	for deep learning with
0.0211940762	the boundaries of
0.0211880247	the tail of
0.0211880247	the event of
0.0211828403	better performance in terms of
0.0211787423	the objective function of
0.0211770789	new techniques for
0.0211625573	a focus on
0.0211567671	an effective method for
0.0211460415	a generic framework for
0.0211418932	the gap between theory and
0.0211313851	this approach allows
0.0211250582	this work attempts to
0.0211090226	the variance in
0.0211086867	the uncertainty associated
0.0211032295	impact of different
0.0210988551	the quantification of
0.0210988551	the pair of
0.0210986020	important than
0.0210964029	and generality of
0.0210952643	between robustness and
0.0210809361	certificate of
0.0210731252	in spirit to
0.0210721886	flexible than
0.0210657053	for segmentation of
0.0210534096	study of different
0.0210507428	perturbed to
0.0210467040	not converge to
0.0210305653	an algorithmic framework for
0.0210295826	the adversarial example
0.0210286485	the baseline in
0.0210148550	a balance between
0.0210086518	and more recently
0.0210001709	the number of parameters of
0.0210001709	the two types of
0.0209993927	$ rate of
0.0209982359	class of algorithms for
0.0209885139	the parameter space of
0.0209840419	for learning with
0.0209840419	the matrix of
0.0209659673	at random from
0.0209490956	the framework on
0.0209420553	used in order to
0.0209367326	the loss surface of
0.0209287423	the graph structure and
0.0209208498	the fr \
0.0209069333	novel connection between
0.0209004254	a predictive model of
0.0208987494	a new algorithm based on
0.0208937559	detection in time
0.0208904576	time algorithms for
0.0208795458	a drop in
0.0208783235	the characterization of
0.0208749753	$ \ lambda \
0.0208720936	the uncertainty associated with
0.0208494394	well correlated
0.0208460680	a substantial amount of
0.0208293862	a prior distribution on
0.0208290593	the run time
0.0208161274	favor of
0.0208135655	the weighted sum of
0.0208131137	the time required to
0.0208068213	an interpretation of
0.0207906922	the eigenfunctions of
0.0207825960	and time consuming to
0.0207822261	results on synthetic and
0.0207735020	in regard to
0.0207678889	a prior distribution over
0.0207664948	time complexity of
0.0207606327	a classifier to
0.0207552698	the spatial and temporal
0.0207532108	a taxonomy for
0.0207526210	the ordering of
0.0207493689	the correlation of
0.0207425535	novel meta
0.0207408502	of magnitude larger than
0.0207380247	the path of
0.0207379605	of one or more
0.0207335655	a formula for
0.0207285859	often result in
0.0207269151	the approach on
0.0207158421	problems as well
0.0207149739	the global minimum of
0.0207110022	the pros and
0.0206948131	scratch with
0.0206931016	less number of
0.0206825490	prefer to
0.0206787331	in various tasks
0.0206564689	for many applications
0.0206546913	a sensitivity of
0.0206522980	a prior on
0.0206507085	the classifier on
0.0206418932	to adapt to different
0.0206408513	better results in
0.0206351536	second main
0.0206282006	a class of non
0.0206202124	the advancement of
0.0206175821	a novel combination of
0.0206126850	a stack of
0.0206072573	\ varepsilon \
0.0205928936	the results from
0.0205928936	the exploration of
0.0205908007	a regret of
0.0205881086	the running time
0.0205827261	the encoder to
0.0205815150	the inductive bias of
0.0205595555	a key component in
0.0205584097	the calibration of
0.0205560998	a class of models
0.0205483095	the space of possible
0.0205442045	further research on
0.0205406231	particular case of
0.0205382320	an exploration of
0.0205245712	d \ to
0.0205229191	and compare to
0.0205172398	new algorithm for
0.0205080553	both global and
0.0205071813	to generate more
0.0205001709	the edges in
0.0205001709	of research in
0.0204993927	the loss on
0.0204982498	next generation of
0.0204970628	to improve upon
0.0204840419	a node in
0.0204791298	the posterior over
0.0204785886	of gradient descent on
0.0204725498	not require access to
0.0204721032	a topic of
0.0204676335	the condition of
0.0204377082	a critical step in
0.0204347176	not hold in
0.0204267811	this gap between
0.0204200317	by orders of
0.0204113262	any point in
0.0204072909	information as well
0.0203811132	the framework allows
0.0203702539	problem as well
0.0203672292	an important step in
0.0203658636	an opportunity to
0.0203605079	to lie on
0.0203558655	not designed to
0.0203237114	novel application of
0.0203207975	the progression of
0.0203158580	to improve performance on
0.0203081925	the mapping from
0.0203068213	the placement of
0.0202998847	first set of
0.0202988381	the connectivity of
0.0202988381	to generalize to new
0.0202971713	$ improvement in
0.0202967921	to perform well
0.0202851956	to resort to
0.0202501709	the knowledge from
0.0202353927	the fundamental limits of
0.0202269151	this problem from
0.0202234879	a decrease in
0.0202178202	this approach leads to
0.0202064025	the automation of
0.0201940762	the connection of
0.0201919762	then focus on
0.0201892042	the learning process of
0.0201760591	novel method to
0.0201708204	the reproducibility of
0.0201697449	this framework allows
0.0201642945	a unified framework of
0.0201538234	the gap by
0.0201418932	both continuous and
0.0201412807	and efficiency of
0.0201322404	a challenge due
0.0201294789	the posterior of
0.0201226476	the underlying distribution of
0.0201122746	this model to
0.0201090226	the case in
0.0201063380	than relying on
0.0201035765	an area of
0.0201006526	$ \ epsilon \
0.0200979743	a novel approach based on
0.0200908007	a connection to
0.0200908007	a new model for
0.0200894331	a transformation of
0.0200722288	the action of
0.0200669911	the failure of
0.0200537055	this property of
0.0200411274	permits to
0.0200284733	various properties of
0.0200036485	as compared with
0.0200015150	to correct for
0.0199875665	and many other
0.0199719726	the inference time
0.0199533986	not sufficient for
0.0199515125	novel combination of
0.0199421063	the decoder to
0.0199254982	technique used to
0.0199215275	last layer of
0.0199168375	the output from
0.0199168375	the problem under
0.0199128194	the case of two
0.0199064025	to operate in
0.0198918932	a promising new
0.0198811132	on sequences of
0.0198689906	the proceedings of
0.0198671001	a fundamental challenge in
0.0198635279	an understanding of
0.0198605079	a drawback of
0.0198409476	each layer to
0.0198327261	the object of
0.0198084350	the alternating direction method of
0.0198068213	the quantity of interest
0.0198044648	feasibility of using
0.0197958389	different views of
0.0197841537	the iteration complexity of
0.0197827090	the root of
0.0197802551	an important tool in
0.0197760923	the total time
0.0197698253	the relationship of
0.0197629605	the problem of learning to
0.0197612805	the mixing of
0.0197606327	this algorithm to
0.0197541120	a number of new
0.0197493689	a process of
0.0197493689	the difficulty in
0.0197461527	a family of models
0.0197446276	the original one
0.0197380247	the value function of
0.0197380247	a prior for
0.0197110004	a challenging task in
0.0197041537	the positions of
0.0196963310	the source domain and
0.0196963310	the graph structure of
0.0196841031	the learnability of
0.0196241794	the proposed method on
0.0196141607	both positive and
0.0196073900	show theoretically and
0.0196031154	given set of
0.0195939532	both transductive and
0.0195934870	same level
0.0195924334	the formulation of
0.0195776100	the proposed framework by
0.0195754231	not scale well to
0.0195584097	the moments of
0.0195575701	of fairness in
0.0195514093	the end to
0.0195421644	possibility for
0.0195322780	certain level of
0.0195302091	a mapping between
0.0195172398	time analysis of
0.0195068879	the classical problem of
0.0194990826	an expensive to
0.0194982498	not suffer from
0.0194840419	the point of
0.0194840419	that training with
0.0194840419	a matrix with
0.0194633706	on average over
0.0194611844	in analogy to
0.0194525361	the representation power of
0.0194416365	under mild conditions on
0.0194276075	an attack on
0.0194131534	to handle such
0.0194079032	more complex models
0.0194037439	this work aims to
0.0193991016	the utilization of
0.0193898976	the existing ones
0.0193696898	a source of
0.0193696898	the learned models
0.0193696898	the limitation of
0.0193557641	a tradeoff between
0.0193479382	the decisions made by
0.0193456708	any form of
0.0193409016	the existence of such
0.0193372521	the usability of
0.0193287600	set of experiments on
0.0193211876	the diagnosis and
0.0193209256	the observation of
0.0193207975	the regime of
0.0193131137	a simple way to
0.0193127346	to generalize well
0.0193038582	the gold standard for
0.0192940767	to perform better
0.0192838886	the time series of
0.0192763483	a gap in
0.0192755823	from observations of
0.0192541537	the fusion of
0.0192526717	not scale well with
0.0192353927	the energy consumption of
0.0192321897	and robustness of
0.0192200026	overall performance of
0.0192182951	a prior over
0.0192124600	the search space of
0.0192002005	to recover from
0.0191940762	the bottleneck of
0.0191940762	the release of
0.0191659955	a novel technique to
0.0191519278	efficiency and effectiveness of
0.0191460079	the decision boundary of
0.0191457376	the degrees of
0.0191163936	and easier to
0.0191143356	a significant improvement over
0.0191122746	a network with
0.0191122746	the agent to
0.0191122746	the distribution over
0.0191102877	new variant of
0.0191058586	to deploy on
0.0190988551	a feature of
0.0190908007	a kind of
0.0190908007	a new set of
0.0190712867	a characterization of
0.0190696325	a relationship between
0.0190641448	a modification to
0.0190596846	a general framework of
0.0190391857	the bag of
0.0190162724	a loss function for
0.0190066328	and efficient way
0.0190001709	the research on
0.0189840419	the function to
0.0189745316	not available in
0.0189644295	a body of
0.0189573093	two aspects of
0.0189519707	work well on
0.0189344262	the problem of learning from
0.0189318015	not lead to
0.0189276329	the proposed approach provides
0.0189263710	also propose two
0.0189220052	a new interpretation of
0.0189168375	the existing models
0.0189163616	new ways of
0.0189126133	a neural network to
0.0189107725	an alternative way to
0.0188884612	space by using
0.0188757160	the relationship among
0.0188605079	both simulation and
0.0188586578	an effective way of
0.0188575094	both shallow and
0.0188558586	after training on
0.0188508738	same order of
0.0188444333	first polynomial time
0.0188396676	the standard approach of
0.0188327261	a field of
0.0188310961	and compare with
0.0188219939	in contrast to previous work
0.0188082518	the algorithm uses
0.0187949165	the proportions of
0.0187864303	of deep learning in
0.0187774095	the benefits of using
0.0187730065	further development of
0.0187722288	an input to
0.0187698253	a point in
0.0187677595	the gain in
0.0187677595	the energy of
0.0187673803	often results in
0.0187612805	a learning system
0.0187501709	this task as
0.0187493689	in order for
0.0187461527	the ability for
0.0187321181	\ epsilon \
0.0187090480	the mixing time
0.0186794789	the noise in
0.0186787423	the convergence analysis of
0.0186764712	then applied to
0.0186668375	each class of
0.0186668133	too large to
0.0186538146	an important task for
0.0186452553	of machine learning for
0.0186384415	the expected value
0.0186327251	the geometric structure of
0.0186200490	impossibility of
0.0186200490	scratch on
0.0186103738	an essential task in
0.0186080504	the loss function of
0.0185961456	for prediction of
0.0185951029	a growing interest
0.0185822050	not attempt to
0.0185756494	not require knowledge of
0.0185734898	also propose to
0.0185643315	an important challenge in
0.0185635453	the representations learned by
0.0185568949	the experimental results on
0.0185557601	using techniques from
0.0185134536	$ reduction in
0.0185040329	the reliance on
0.0185012657	a realization of
0.0185001709	a component of
0.0184902667	of neural models
0.0184861415	using machine learning to
0.0184840419	the parameter of
0.0184757178	$ bound on
0.0184525361	a theoretical understanding of
0.0184276075	a tedious and
0.0184232245	also leads to
0.0184014201	also referred to
0.0183903559	of great importance to
0.0183709813	not make use of
0.0183381411	the computational burden of
0.0183282498	the summation of
0.0183118407	to depend on
0.0183099788	further research in
0.0182943337	the sample complexity for
0.0182926022	this approach results in
0.0182915687	of data into
0.0182859543	the operation of
0.0182838886	the variation in
0.0182824289	for tasks such as
0.0182778450	the flexibility to
0.0182774095	the training time of
0.0182774095	the separability of
0.0182774095	and speed of
0.0182774095	the proposal of
0.0182774095	the location and
0.0182623627	| \ mathcal a
0.0182612805	a difference of
0.0182501709	a classifier with
0.0182392014	a strategy to
0.0182379605	of attention in
0.0182300237	a region of
0.0182222101	a theoretical framework to
0.0182218540	the identification and
0.0181956080	the increase in
0.0181956080	the comparison of
0.0181747241	the statistical analysis of
0.0181708204	the perception of
0.0181597871	for training models
0.0181587181	both performance and
0.0181551946	new methods for
0.0181484195	mean estimation in
0.0181412807	a version of
0.0181411737	a more general class of
0.0181396930	each layer of
0.0181385105	the simplicity and
0.0181358132	with tens of
0.0181350644	for data sets with
0.0181332352	the difference between two
0.0181322558	both forward and
0.0181202124	with different levels of
0.0181122746	in view of
0.0181122746	the dependence on
0.0181094257	some measure of
0.0181028063	and computational efficiency of
0.0180993918	the structural properties of
0.0180993721	the convergence properties of
0.0180964937	for variable selection in
0.0180696306	full potential of
0.0180668440	this difficulty by
0.0180634098	both on synthetic and
0.0180571839	different methods for
0.0180442668	the equivalence between
0.0180427361	new approach for
0.0180113878	to achieve better
0.0180001709	the code of
0.0179840419	the first step of
0.0179840419	a search for
0.0179840419	of objects in
0.0179831332	to model such
0.0179825345	overall accuracy of
0.0179718540	the activation of
0.0179341393	does not require to
0.0179313596	a lot of attention in
0.0179313596	in domains such as
0.0179276582	the learning rate of
0.0179190527	the predictions made by
0.0179168375	a classifier on
0.0179131534	the maximum mean
0.0179126133	a synthetic dataset and
0.0179019479	a selection of
0.0178966410	an alternative approach to
0.0178881215	show both theoretically and
0.0178825728	a novel set of
0.0178739565	or expensive to
0.0178703133	an image from
0.0178605079	of great interest to
0.0178523727	a means for
0.0178368213	the adjacency matrix of
0.0178340112	useful information for
0.0178253398	all nodes in
0.0178203797	this method by
0.0178158235	also shown to
0.0178118407	the curse of dimensionality in
0.0178110388	a novel method to
0.0178009841	the heart of many
0.0177967040	only applicable to
0.0177906922	the minimizers of
0.0177847482	this phenomenon by
0.0177760923	new family of
0.0177677595	the number of clusters in
0.0177677595	the convergence to
0.0177501709	the kind of
0.0177501709	the search of
0.0177490756	new results on
0.0177380247	the tuning of
0.0177335655	a platform for
0.0177300101	this paper gives
0.0177223727	not perform well
0.0177110004	the theoretical analysis of
0.0176956080	the case with
0.0176843174	the building blocks of
0.0176794789	the data with
0.0176549057	a simple method for
0.0176459122	the layers of
0.0176456080	the collection of
0.0176349739	the drawback of
0.0176332181	novel class of
0.0176324673	a comparison between
0.0176284914	these challenges by
0.0176202124	different classes of
0.0176112549	the proposed method provides
0.0176112549	the proposed approach over
0.0176055621	the interaction of
0.0175961456	the variation of
0.0175908007	the paradigm of
0.0175895232	a popular method to
0.0175810961	an improvement to
0.0175575701	to other types of
0.0175557060	both quantitatively and
0.0175478933	one order of
0.0175427361	by learning to
0.0175415767	a generative model of
0.0175375823	often lead to
0.0175362935	and exploitation of
0.0175240648	to operate on
0.0175139381	use case of
0.0175027882	the foundation for
0.0175001709	the list of
0.0175001709	the topology and
0.0175001709	the coefficient of
0.0174718540	a distribution on
0.0174556880	models learned from
0.0174537000	mean square error of
0.0174449023	for future work
0.0174242349	for time series with
0.0174238480	several experiments on
0.0174220052	a new approach based on
0.0174169401	same accuracy as
0.0174168949	more important to
0.0174120412	to rely on
0.0174120412	a problem in
0.0174092488	a novel form of
0.0174045118	this issue by using
0.0173812560	this approach provides
0.0173586578	to perform well in
0.0173551097	to grow with
0.0173357628	an open question of
0.0173282498	the lengths of
0.0173280969	models tend to
0.0173118407	a distance between
0.0172988381	the strategy of
0.0172988381	a mechanism to
0.0172824289	for learning from
0.0172824289	a novel approach of
0.0172778450	a methodology to
0.0172774095	the spectra of
0.0172606327	for inference in
0.0172541537	the drawbacks of
0.0172534547	the difficulty to
0.0172501709	the expansion of
0.0172461037	an evaluation of
0.0172450490	novel framework for
0.0172386605	to run on
0.0172357231	an application for
0.0172321897	this method to
0.0172294184	and specificity of
0.0172285859	not considered in
0.0172283072	for dealing with
0.0172252754	or better performance than
0.0172234225	a central challenge in
0.0172133706	the first step towards
0.0172124600	a simulation study and
0.0172023409	good performance with
0.0171956080	the means of
0.0171956080	the trained models
0.0171956080	the investigation of
0.0171541032	more robust and
0.0171459122	a model to
0.0171316499	a probabilistic model of
0.0171259072	new method based on
0.0171246914	to focus on
0.0171018024	various classes of
0.0170997047	novel formulation of
0.0170962938	amount of data for
0.0170891919	for implicit models
0.0170886886	a stochastic version of
0.0170722288	the prior over
0.0170712867	the behaviors of
0.0170641674	in applications such as
0.0170500172	for exploration in
0.0170375940	the large number of
0.0170284108	the development of models
0.0170113878	able to learn from
0.0169990868	the number of parameters in
0.0169840419	the distance from
0.0169840419	the parametrization of
0.0169741846	for inference on
0.0169733764	a comparison with
0.0169648649	and challenging problem in
0.0169515125	time required for
0.0169445116	the framework by
0.0169270789	models trained by
0.0168859148	more flexible and
0.0168851128	to interact with
0.0168735917	use cases of
0.0168605079	as demonstrated in
0.0168536567	the dynamical system
0.0168280969	to act as
0.0168237602	various fields of
0.0168162152	new approach based on
0.0168044869	this technique to
0.0167983540	of samples per
0.0167835238	different properties of
0.0167828561	mean embedding of
0.0167824289	the authors of
0.0167816270	a new method of
0.0167561899	new algorithm based on
0.0167511829	to learn about
0.0167501709	the technique to
0.0167493689	in terms of accuracy and
0.0167379605	first study of
0.0167373257	in accuracy over
0.0167359047	new classes of
0.0167330583	with as few as
0.0167300237	a manifold of
0.0167274095	in terms of speed and
0.0167274095	a novel model for
0.0167263342	a tool to
0.0167073521	the information contained in
0.0166956080	an algorithm with
0.0166940762	in terms of performance and
0.0166845820	as demonstrated by
0.0166649832	the computational efficiency and
0.0166618667	on real and
0.0166596602	on mnist and
0.0166500147	the correspondence between
0.0166459122	a task of
0.0166385105	a novel methodology to
0.0166385105	by training with
0.0166327251	the approximation error of
0.0166323348	many scientific and
0.0165993273	a novel analysis of
0.0165961456	the reduction of
0.0165831173	via experiments on
0.0165826746	the recent advances in
0.0165805676	the possibility of using
0.0165795696	a foundation for
0.0165585426	the time complexity of
0.0165523309	the correctness and
0.0165338886	a solution with
0.0165152158	a problem with
0.0165152158	the consideration of
0.0165001709	the parameterization of
0.0165001709	the configuration of
0.0165001709	a scenario in
0.0164785859	also applicable to
0.0164734225	a unifying framework for
0.0164582039	novel technique to
0.0164525481	not rely on
0.0164493735	much attention in
0.0164470691	many fields of
0.0164439647	the paper provides
0.0164168375	the advantages of using
0.0164120412	a classifier for
0.0164107725	not sufficient to
0.0164058681	also robust to
0.0164019479	a reduction in
0.0163903559	an important problem with
0.0163882317	the proposed model on
0.0163776670	the proposed framework on
0.0163743322	this problem by using
0.0163523727	a new metric for
0.0163372521	a reformulation of
0.0163310961	a case for
0.0163226371	different machine learning models
0.0163209256	a generator and
0.0163128139	new benchmark for
0.0163111192	a robot to
0.0163110388	a strategy for
0.0163082518	the gap in
0.0162977628	such as text and
0.0162937718	a metric for
0.0162911277	of points in
0.0162877804	to occur in
0.0162859543	a mechanism for
0.0162826891	models trained using
0.0162778450	a new framework to
0.0162777207	to adjust for
0.0162673803	an advantage of
0.0162651349	for patients with
0.0162606327	a setting in
0.0162557460	the equality of
0.0162541537	the interpretability and
0.0162471557	new technique for
0.0162461037	two approaches for
0.0162396102	the convergence rates of
0.0162357231	to run in
0.0162300237	the exponential of
0.0162157605	each node in
0.0162111215	the generalizability of
0.0162092488	the instability of
0.0162064930	an ability to
0.0162030784	the idea of using
0.0162002321	the preservation of
0.0161956080	the assessment of
0.0161839064	new model for
0.0161778660	this approach to
0.0161769861	in data science and
0.0161742349	and quantity of
0.0161642945	a general framework to
0.0161549057	the existing literature on
0.0161481957	an analysis on
0.0161358132	the predictions made
0.0161226476	the convergence speed of
0.0161068093	models fail to
0.0160848580	models trained to
0.0160582518	a decomposition of
0.0160338886	a choice of
0.0160277283	any loss in
0.0160240046	good performance for
0.0160188100	both upper and
0.0160099618	each component of
0.0160001709	a definition of
0.0159942775	for approximate inference in
0.0159840419	the smoothness and
0.0159624600	the existing methods for
0.0159442993	the problem from
0.0159392628	new ways to
0.0159355363	this theory to
0.0159263710	also referred to as
0.0159081059	the pool of
0.0159027561	for unsupervised learning of
0.0159019479	the shortcomings of
0.0158938127	with applications in
0.0158938011	the data used to
0.0158910388	a regret bound of
0.0158446609	novel solution to
0.0158310961	a line of
0.0158242429	potential of using
0.0158111029	also proposed to
0.0158110388	the mapping between
0.0158103559	in recent years due to
0.0158096676	different methods of
0.0157864118	this form of
0.0157824289	a technique to
0.0157816270	the principles of
0.0157795826	the motivation for
0.0157774095	a dataset from
0.0157729191	in space and time
0.0157677595	a solution of
0.0157596676	in many applications such as
0.0157501709	the flexibility and
0.0157501709	and smoothness of
0.0157335655	the stochasticity of
0.0157324902	the pitfalls of
0.0157111215	an estimator for
0.0157110004	the proposed methods on
0.0157064930	the advantage of using
0.0157058586	for practical use
0.0156990868	the transformation of
0.0156915319	a linear rate of
0.0156893000	this work focuses on
0.0156798371	in signal processing and
0.0156794789	the maximum of
0.0156544947	novel algorithm to
0.0156537130	of variation in
0.0156467279	novel architecture for
0.0156459122	a policy for
0.0156459122	the minimum of
0.0156456080	the areas of
0.0156378202	by learning from
0.0156257828	many problems in
0.0156251000	not robust to
0.0156194805	as special cases of
0.0156044869	on graphs with
0.0155845610	various tasks such as
0.0155756494	most popular methods for
0.0155661466	and sparsity of
0.0155661466	the heterogeneity in
0.0155611192	the capability to
0.0155575701	to converge in
0.0155480539	\ beta \ in
0.0155480539	\ alpha \ in
0.0155362997	a mathematical framework for
0.0154990868	the local models
0.0154961527	and location of
0.0154840419	the segmentation of
0.0154840419	the modes of
0.0154794805	new concept of
0.0154582353	the row and
0.0154573669	and uniqueness of
0.0154558586	this approach does not
0.0154445116	the server to
0.0154361789	a significant improvement on
0.0154131534	the dependency between
0.0154081059	the quantity of
0.0154054812	to search over
0.0153969926	the dissimilarity between
0.0153690793	with large numbers of
0.0153392089	very simple and
0.0153323154	good performance in
0.0153323154	these results show
0.0153310961	the first algorithm with
0.0153039657	as compared to other
0.0152937718	the derivatives of
0.0152898895	other fields of
0.0152824289	to extend to
0.0152774095	a dictionary of
0.0152467040	very important for
0.0152412683	many tasks in
0.0152386605	in fields such as
0.0152353927	the marginal likelihood of
0.0152353927	the main idea of
0.0152064930	the risks of
0.0152036467	each point in
0.0151778660	on data from
0.0151672320	a portion of
0.0151620412	the adaptation of
0.0151378202	of neurons in
0.0151378202	this lack of
0.0151315316	of deep learning with
0.0151198303	the root mean
0.0151090226	a framework to
0.0150831983	the number of nodes in
0.0150712938	of words in
0.0150698521	a challenging problem in
0.0150603955	a convergence rate of
0.0150599425	the edge of
0.0150598274	also capable of
0.0150496874	a measure for
0.0150385508	an impact on
0.0150338886	the measurement of
0.0150329531	as demonstrated on
0.0149961527	a loss of
0.0149961527	in environments with
0.0149868232	the optimal solution of
0.0149639784	same distribution as
0.0149624600	the model size and
0.0149525481	only access to
0.0149490956	also results in
0.0149440519	using synthetic and
0.0149436210	the presence or
0.0149318015	this result by
0.0149313596	each step of
0.0149149176	new measure to
0.0149037439	a majority of
0.0148903559	a crucial task in
0.0148896409	a diversity of
0.0148885086	also lead to
0.0148752154	new method to
0.0148701996	value function for
0.0148603559	best performance on
0.0148338986	to contribute to
0.0148199449	the first method to
0.0148116524	many applications such as
0.0148110388	the demand for
0.0148096676	the model does not
0.0148037055	in experiments with
0.0148029036	the code for
0.0147714595	of clusters in
0.0147467838	the source code of
0.0147445037	the reward of
0.0147379605	an objective to
0.0147359047	between nodes in
0.0147353927	for exact recovery of
0.0147314750	a framework based on
0.0147064930	an error of
0.0147064930	a theory for
0.0147025481	or equal to
0.0146943950	for community detection in
0.0146872721	to noise in
0.0146817098	a spectrum of
0.0146817098	a criterion for
0.0146794789	the nodes in
0.0146767106	in many fields of
0.0146672320	to lie in
0.0146665319	of gradient descent for
0.0146456080	as input and
0.0146442993	the differences in
0.0146405038	a sequence to
0.0146073900	of dl models
0.0145977133	new technique to
0.0145925560	different approaches for
0.0145869819	both local and
0.0145829998	also provided to
0.0145641674	this method on
0.0145499531	of recent interest
0.0145454084	new paradigm for
0.0145359615	for anomaly detection in
0.0145338886	the construction and
0.0145284108	a role in
0.0145278987	a generative model with
0.0144961527	the degradation of
0.0144961527	the gap to
0.0144840419	the pattern of
0.0144840419	the score of
0.0144624600	a wide range of applications in
0.0144313596	with thousands of
0.0144232245	as input to
0.0144037439	in areas such as
0.0143938011	a given number of
0.0143824673	to aid in
0.0143812560	better performance on
0.0143810961	different approaches to
0.0143530556	the reason for
0.0143484512	an efficient way to
0.0143331173	more effective in
0.0143291169	a novel architecture for
0.0143212297	new tool for
0.0142890793	a principled way of
0.0142864118	the scalability and
0.0142838942	very expensive to
0.0142833603	of magnitude more
0.0142824289	a concept of
0.0142740567	more challenging to
0.0142655388	first step of
0.0142606327	the specification of
0.0142512657	different distributions of
0.0142359047	the weakness of
0.0142322770	the theoretical understanding of
0.0142218540	this family of
0.0142152158	a novel method of
0.0142120952	the exact recovery of
0.0141956080	and interpretability of
0.0141954073	on several synthetic and
0.0141822284	both space and
0.0141770789	these two types of
0.0141239234	the information in
0.0141122746	this framework to
0.0141086578	a principled way to
0.0141086578	a discussion on
0.0141067968	and diversity of
0.0140988551	on different datasets and
0.0140962938	a simpler and
0.0140834137	the balance between
0.0140804890	several techniques to
0.0140712938	of learning under
0.0140633003	the link between
0.0140400445	the divergence between
0.0140360063	the key idea of
0.0140338886	and visualization of
0.0140338886	a benchmark of
0.0139947181	the early detection of
0.0139812350	novel extension of
0.0139344300	most important for
0.0139019479	a benchmark for
0.0138981957	the most popular methods for
0.0138981957	a new architecture for
0.0138774384	new metric for
0.0138671001	a key challenge for
0.0138611742	and point out
0.0138575979	each instance in
0.0138323154	many applications in
0.0138118407	each node of
0.0137958478	of freedom in
0.0137877804	the divide and
0.0137877804	the deep q
0.0137824289	a compact and
0.0137673803	more difficult to
0.0137611192	of objects with
0.0137501709	the choices of
0.0137364118	the first algorithm for
0.0137278660	a flexible and
0.0137239801	of clusters of
0.0137218540	the laws of
0.0137107717	new dataset for
0.0137039600	a sample complexity of
0.0137030784	a new method to
0.0136909091	these experiments show
0.0136545118	by building on
0.0136412807	the case for
0.0136244603	on simulated and
0.0135955584	to belong to
0.0134529602	of elements in
0.0134401426	first step in
0.0134258894	this goal by
0.0133817845	a connection with
0.0133617271	to benefit from
0.0133525869	novel method of
0.0133523727	an assumption of
0.0133390793	the organization of
0.0133331173	this problem under
0.0133324427	the practical value
0.0133096676	the trend of
0.0133096676	the consensus of
0.0133078403	the explainability of
0.0132877804	not require to
0.0132778450	a procedure to
0.0132774095	a surrogate for
0.0132518709	and real data show
0.0132501709	of patients with
0.0132379605	a metric to
0.0132364118	a limitation of
0.0132243550	other methods for
0.0132120952	the direct application of
0.0131996197	very effective in
0.0131168350	good results in
0.0131137657	the large amount of
0.0130874232	a cost of
0.0130804890	using simulated and
0.0130712938	of existing work
0.0130661466	the ease of
0.0130496874	a novel algorithm to
0.0130338886	for sampling from
0.0130338886	the requirement for
0.0130241298	the experiment results show
0.0129972985	a gap between
0.0129358179	between input and
0.0129276089	of freedom of
0.0128885086	by allowing for
0.0128824673	to generalize to
0.0128530556	to perform well on
0.0128408753	on synthetic data as well
0.0128109392	to hold for
0.0127889274	a significant challenge in
0.0127753886	of choice for
0.0127617159	of existing models
0.0127610141	and sufficient condition for
0.0127541120	a first step in
0.0127512657	the outputs from
0.0127501709	the predictions from
0.0127278660	the computational time
0.0127277696	this idea to
0.0126901146	the ordinary least
0.0126822737	in practice due to
0.0126742349	the accuracies of
0.0126658093	this result to
0.0126459680	this approach on
0.0126411982	this problem through
0.0126225058	first layer of
0.0126100355	an attention mechanism to
0.0125428908	to apply to
0.0125428908	a scheme for
0.0125352891	novel methodology to
0.0124327319	an explanation for
0.0124008059	the widespread use
0.0123817845	several applications of
0.0123118407	the dependence between
0.0122571813	the transition from
0.0122447665	each iteration of
0.0122278660	the existing work
0.0121610616	the global optimum of
0.0121531732	by comparing with
0.0120876636	the percentage of
0.0120874232	better performance of
0.0120731041	the proposed approach on
0.0120661466	the dependency on
0.0120661466	for problems such as
0.0120601394	a powerful tool to
0.0120474739	a challenge in
0.0120428908	this question in
0.0119753250	new perspective on
0.0118914180	mean and variance of
0.0118711784	other methods on
0.0118530556	a novel technique for
0.0118309442	the product of two
0.0118061556	better performance in
0.0117278660	the computation time
0.0116778660	and limitations of
0.0116463767	to serve as
0.0116170800	a powerful tool in
0.0115973064	a variety of different
0.0115874232	as proposed in
0.0113585287	and explainability of
0.0113527113	the method does not
0.0113408887	novel variant of
0.0113390793	to assist in
0.0113309442	a new dataset of
0.0112583686	several synthetic and
0.0112043146	novel technique for
0.0110496874	a challenge to
0.0110206055	novel framework of
0.0107571813	very general and
0.0107457658	these problems by
0.0105474739	a solution for
0.0103927120	a model based on
0.0103603559	several examples of
0.0103590968	this notion of
0.0103526285	more stable and
0.0102583686	the large amount
0.0101822284	to two orders of
0.0097981622	also applied to
0.0097576884	a constraint on
0.0097206328	not apply to
0.0096657761	time evolution of
0.0094704535	an efficient method to
0.0092017222	a recent work
0.0090418821	new approaches to
